lattice_vector     35.71080107     -0.00000000      0.00000000 
lattice_vector      0.00000000     16.11787464      0.00000000 
lattice_vector     -0.00000000      0.00000000     11.84206242 
atom      25.09628619      0.98042293     -0.35481876 C 
atom      24.40162041      2.24739297     -0.35627612 C 
atom      22.86009850      0.69050501     -0.41104664 C 
atom      24.13488878      0.00912164     -0.39083858 C 
atom      21.59007387      0.03708903     -0.43778762 C 
atom      20.31030120      0.67379159     -0.42503984 C 
atom      19.04360897     -0.01822877     -0.40953459 C 
atom      18.07103646      0.94442060     -0.35995451 C 
atom      18.75096157      2.21670565     -0.34958659 C 
atom      18.10430584      3.48787863     -0.31393229 C 
atom      18.74134340      4.76292370     -0.33644177 C 
atom      20.28157472      6.31972285     -0.39952385 C 
atom      19.00668978      7.00103502     -0.37435085 C 
atom      18.04582483      6.02954377     -0.33224229 C 
atom      21.55149213      6.97231758     -0.42786203 C 
atom      22.83142156      6.33593687     -0.41708302 C 
atom      24.09736006      7.02894595     -0.39821528 C 
atom      24.39237939      4.79370274     -0.35745117 C 
atom      25.07101617      6.06689693     -0.35911307 C 
atom      25.04004025      3.52243212     -0.33822926 C 
atom       7.24654512      6.01752136     -0.27358748 C 
atom       6.28561795      6.99161375     -0.33291774 C 
atom       5.01356881      6.31294109     -0.38445632 C 
atom       6.55415696      4.75189582     -0.29177644 C 
atom       3.74081511      6.96153012     -0.41509535 C 
atom       2.46459138      6.32085378     -0.41161529 C 
atom       1.19759739      7.01583942     -0.41352514 C 
atom       0.22629381      6.05417567     -0.39259923 C 
atom       0.90724772      4.77974486     -0.38023066 C 
atom       0.25772503      3.51164819     -0.37195741 C 
atom       0.88994155      2.23328976     -0.38854717 C 
atom       0.19756182      0.96817008     -0.42792948 C 
atom       1.15996237     -0.00585538     -0.45053894 C 
atom       2.43306140      0.67217179     -0.42108120 C 
atom       3.70502113      0.02153357     -0.40009050 C 
atom       4.98025593      0.66212471     -0.34437410 C 
atom       6.53483782      2.20462489     -0.26716300 C 
atom       6.24628606     -0.03195770     -0.28254632 C 
atom       7.21579230      0.93058555     -0.23266202 C 
atom       7.18357941      3.47303847     -0.24709897 C 
atom       3.07615264      2.56313235      2.70217962 C 
atom       4.37353882      4.46140828      2.70163440 C 
atom       3.05576748      2.51887250      4.09225897 C 
atom       4.41681245      4.49212608      4.09167696 C 
atom      22.22159658      4.45376565      2.68410898 C 
atom      20.92332502      2.55620947      2.68425349 C 
atom      22.25202065      4.49235512      4.07425572 C 
atom      20.88998456      2.51982433      4.07440601 C 
atom       3.74177861      3.50214965      4.82043337 C 
atom      21.57018017      3.50670368      4.80281652 C 
atom      21.56852989      3.50804186      6.28034094 C 
atom      20.40425061      3.21745215      7.00721930 C 
atom      22.73116509      3.80013004      7.00911201 C 
atom      20.45031639      3.23296232      8.39756479 C 
atom      22.68208177      3.78693280      8.39926638 C 
atom       3.74712957      3.49625143      6.29791233 C 
atom       4.91001916      3.78718981      7.02702103 C 
atom       2.58450524      3.19939196      7.02455231 C 
atom       4.86222043      3.76658840      8.41760383 C 
atom       2.63194514      3.20748877      8.41447992 C 
atom      21.54556995      8.37452868     -0.44740045 C 
atom      21.55203138      9.60918211     -0.45872099 C 
atom      21.56592616     10.94289944     -0.46667289 C 
atom      21.57955084     12.18350276     -0.46582434 C 
atom      21.58987920     13.51734176     -0.46206581 C 
atom      21.59523695     14.75213024     -0.45687693 C 
atom       3.74348593      8.36257764     -0.42270167 C 
atom       3.74137132      9.59707237     -0.43032127 C 
atom       3.73082937     10.92994859     -0.43721154 C 
atom       3.71816014     12.17032546     -0.43446479 C 
atom       3.70668388     13.50328378     -0.42944095 C 
atom       3.70183444     14.73784063     -0.41832149 C 
atom       8.59067438      3.46507778     -0.19949485 C 
atom       9.81293949      3.45424702     -0.18401642 C 
atom      11.21851786      3.45668152     -0.17149638 C 
atom      11.92990570      4.67694757     -0.19388746 C 
atom      11.93845148      2.24145577     -0.15214484 C 
atom      13.31278921      4.66958276     -0.20763451 C 
atom      13.32140089      2.25934461     -0.16627303 C 
atom      14.07379223      3.46686915     -0.20118342 C 
atom      15.47389585      3.47135643     -0.23896774 C 
atom      16.69694402      3.48163290     -0.27323310 C 
atom      26.44958275      3.52970737     -0.32425914 C 
atom      27.67338925      3.53887111     -0.32470630 C 
atom      29.07465659      3.53984868     -0.33367819 C 
atom      29.83402191      4.74312085     -0.29494432 C 
atom      29.83039158      2.33482915     -0.38719979 C 
atom      31.21749926      4.75458329     -0.30569103 C 
atom      31.21330015      2.32095008     -0.39703411 C 
atom      31.93162153      3.53662830     -0.35548449 C 
atom      33.33770786      3.52955255     -0.36439905 C 
atom      34.56025773      3.52107691     -0.36694564 C 
atom       2.55881874      1.80533372      2.11143039 H 
atom       4.88133864      5.22599467      2.11174479 H 
atom       2.53168853      1.70936266      4.60091839 H 
atom       4.94869397      5.29717896      4.59942817 H 
atom      22.73506141      5.21445932      2.09390572 H 
atom      20.41090626      1.79478556      2.09406384 H 
atom      22.77996822      5.29972798      4.58239007 H 
atom      20.36108872      1.71318774      4.58270943 H 
atom      19.46375284      3.00687439      6.49763104 H 
atom      23.67283201      4.00994617      6.50138658 H 
atom      19.55768897      3.01514165      8.98618197 H 
atom      23.57330828      4.00612146      8.98933411 H 
atom       5.85062628      4.00229832      6.51942978 H 
atom       1.64378297      2.99003607      6.51495943 H 
atom       5.75320748      3.98486173      9.00877233 H 
atom       1.74022019      2.98437543      9.00208382 H 
atom      24.22392687      8.10697176     -0.40991996 H 
atom      18.86824609      8.07772680     -0.38514244 H 
atom      18.91548939     -1.09635867     -0.43059976 H 
atom      24.27193883     -1.06803008     -0.40059788 H 
atom       6.42548435      8.06767435     -0.33653305 H 
atom       1.07063772      8.09354230     -0.42776463 H 
atom       1.02055920     -1.08236482     -0.48211876 H 
atom       6.37309395     -1.11030333     -0.27559437 H 
atom      11.39127698      5.62200151     -0.20555176 H 
atom      11.40693645      1.29255374     -0.13106603 H 
atom      16.99509791      0.81047373     -0.33496148 H 
atom       8.29123820      0.79446428     -0.17800418 H 
atom       8.32341971      6.14409429     -0.22108776 H 
atom      16.96864398      6.15100682     -0.30284192 H 
atom      26.17454961      0.85901839     -0.32978461 H 
atom      26.14780962      6.20232879     -0.33484081 H 
atom      -0.85039462      6.19137855     -0.38720907 H 
atom      -0.88064028      0.84261467     -0.43961314 H 
atom      31.75403583      5.70050046     -0.27633482 H 
atom      31.74719047      1.37412016     -0.43920099 H 
atom      23.05034275      2.04226762     -0.38971946 N 
atom      20.10545645      2.02470031     -0.39113843 N 
atom      20.09187540      4.96814076     -0.37773809 N 
atom      23.03745352      4.98503889     -0.39253751 N 
atom       5.20383447      4.96013131     -0.36174301 N 
atom       2.26022027      4.97156972     -0.39277309 N 
atom       2.24267198      2.02525345     -0.38547725 N 
atom       5.18344974      2.01157537     -0.33373095 N 
atom       3.71909665      3.51586461      2.00846230 N 
atom      21.57326385      3.50438391      1.99059991 N 
atom      21.56559440      3.51031124      9.09062260 N 
atom       3.74687113      3.48390646      9.10844197 N 
atom      21.57128720      3.50484526     -0.39031657 Zn 
atom       3.72500885      3.49425107     -0.36901993 Zn 
atom      14.16487717      0.73513577     -0.14496356 Cl 
atom      14.14343620      6.20010748     -0.24128093 Cl 
atom      28.99838264      6.27052743     -0.23169648 Cl 
atom      28.99262914      0.80915984     -0.44839655 Cl 
