lattice_vector     35.63376921      0.00000000     -0.00000000 
lattice_vector     -0.00000000     16.11109511      0.00000000 
lattice_vector     -0.00000000     -0.00000000     11.85661085 
atom      25.10203276      1.01317088     -0.35072435 C 
atom      24.39906250      2.27633589     -0.34791118 C 
atom      22.86748029      0.71336854     -0.41413459 C 
atom      24.14507272      0.03763116     -0.39404432 C 
atom      21.60068799      0.05666184     -0.44531507 C 
atom      20.31947095      0.68819649     -0.42914949 C 
atom      19.05542177     -0.00805575     -0.41368763 C 
atom      18.07945713      0.95118870     -0.36042279 C 
atom      18.75688479      2.22548782     -0.34946483 C 
atom      18.11060474      3.49541306     -0.31591582 C 
atom      18.73872127      4.77362703     -0.34215086 C 
atom      20.27071974      6.33682902     -0.40861059 C 
atom      18.99322136      7.01240949     -0.39158112 C 
atom      18.03616859      6.03693188     -0.34667596 C 
atom      21.53722049      6.99416894     -0.43331998 C 
atom      22.81864508      6.36321206     -0.41162551 C 
atom      24.08250255      7.05931927     -0.38099441 C 
atom      24.38054625      4.82528239     -0.34236097 C 
atom      25.05820473      6.09948916     -0.33519377 C 
atom      25.02610605      3.55496011     -0.32383488 C 
atom       7.27952147      6.02519092     -0.25879126 C 
atom       6.32101742      7.00163261     -0.31772236 C 
atom       5.04810998      6.32560881     -0.37587275 C 
atom       6.58407345      4.76150029     -0.28347561 C 
atom       3.77799771      6.97733061     -0.40880792 C 
atom       2.50077269      6.34016387     -0.41080772 C 
atom       1.23529876      7.03745585     -0.41784781 C 
atom       0.26250056      6.07724975     -0.40146671 C 
atom       0.94185689      4.80210956     -0.38665574 C 
atom       0.29144843      3.53514440     -0.38237168 C 
atom       0.91942883      2.25543604     -0.39734898 C 
atom       0.22435644      0.99218927     -0.44500213 C 
atom       1.18503637      0.01637967     -0.46536994 C 
atom       2.45878032      0.69211328     -0.42619281 C 
atom       3.72882789      0.03966264     -0.40096149 C 
atom       5.00485370      0.67633174     -0.34221416 C 
atom       6.56129913      2.21489089     -0.26082369 C 
atom       6.26893886     -0.02077197     -0.27725991 C 
atom       7.24019701      0.93981558     -0.22469883 C 
atom       7.21080487      3.48204580     -0.23861616 C 
atom       3.07497366      2.58320607      2.70770004 C 
atom       4.40319199      4.45981954      2.71132794 C 
atom       3.05012351      2.53868812      4.09795915 C 
atom       4.44208673      4.48990378      4.10152913 C 
atom      22.25927705      4.44755715      2.69651177 C 
atom      20.93383184      2.56917766      2.69267353 C 
atom      22.29724002      4.47785850      4.08690627 C 
atom      20.90724296      2.52528521      4.08293790 C 
atom       3.75057119      3.50998574      4.82880470 C 
atom      21.60257424      3.49986067      4.81400036 C 
atom      21.59793898      3.50117935      6.29020222 C 
atom      20.42787697      3.22608610      7.01401932 C 
atom      22.76055595      3.78337555      7.02322268 C 
atom      20.46775291      3.24931258      8.40464654 C 
atom      22.70495624      3.77914076      8.41339529 C 
atom       3.75711672      3.50241523      6.30486928 C 
atom       4.92432907      3.78170372      7.03197971 C 
atom       2.59419481      3.21425249      7.03470213 C 
atom       4.88011765      3.76029289      8.42282349 C 
atom       2.64561608      3.22033966      8.42474473 C 
atom      21.52934845      8.39505083     -0.46044355 C 
atom      21.54632109      9.62892931     -0.47528257 C 
atom      21.57221898     10.96098082     -0.48644213 C 
atom      21.59690475     12.20070879     -0.48688638 C 
atom      21.61145047     13.53298895     -0.48056004 C 
atom      21.61167152     14.76703594     -0.47052467 C 
atom       3.78227992      8.37812947     -0.41306287 C 
atom       3.77184852      9.61215832     -0.42238030 C 
atom       3.75576828     10.94417591     -0.43169590 C 
atom       3.73753384     12.18403317     -0.43004640 C 
atom       3.72475995     13.51611914     -0.42192072 C 
atom       3.72171617     14.75022728     -0.41557155 C 
atom       8.61637148      3.47262956     -0.18798757 C 
atom       9.83817074      3.45962863     -0.17525819 C 
atom      11.24244829      3.46002516     -0.16574820 C 
atom      11.95117241      4.68448237     -0.18663164 C 
atom      11.95514401      2.23785004     -0.15484167 C 
atom      13.33276581      2.26727881     -0.17372148 C 
atom      13.32861611      4.65921945     -0.20484238 C 
atom      14.08654126      3.46423056     -0.20327291 C 
atom      15.48381896      3.46943829     -0.24061271 C 
atom      16.70469994      3.48589644     -0.27535047 C 
atom      26.43168204      3.56650220     -0.31098414 C 
atom      27.65282349      3.58105080     -0.31947119 C 
atom      29.04984366      3.58010251     -0.34492822 C 
atom      29.80973036      4.77310790     -0.32002202 C 
atom      29.80022782      2.38193592     -0.39920176 C 
atom      31.18737300      4.79571343     -0.34013838 C 
atom      31.17725743      2.34994697     -0.42154233 C 
atom      31.89283515      3.57007071     -0.38745632 C 
atom      33.29704691      3.56141464     -0.39178970 C 
atom      34.51880203      3.54805810     -0.38234717 C 
atom      23.05018318      2.06503238     -0.38610977 N 
atom      20.11140732      2.03798106     -0.39173939 N 
atom      20.08789291      4.98465991     -0.38047306 N 
atom      23.02669505      5.01349465     -0.38728396 N 
atom       5.23463609      4.97217534     -0.35742562 N 
atom       2.29465731      4.99158219     -0.39343074 N 
atom       2.27115298      2.04479050     -0.38677539 N 
atom       5.21015354      2.02515134     -0.33099830 N 
atom       3.73623721      3.52482389      2.01569938 N 
atom      21.59153436      3.51330317      2.00060926 N 
atom      21.58219067      3.51996224      9.10155149 N 
atom       3.76435915      3.48711693      9.11665597 N 
atom      14.00662550      5.82925703     -0.23224507 F 
atom      14.01512661      1.09915511     -0.16938209 F 
atom      29.11508615      1.21611526     -0.42900560 F 
atom      29.13328407      5.94374523     -0.27216237 F 
atom      21.57000255      3.52699292     -0.38530057 Zn 
atom       3.75209983      3.51029587     -0.36378265 Zn 
atom       2.54687282      1.83406094      2.11536783 H 
atom       4.92545707      5.21596291      2.12313315 H 
atom       2.51133131      1.73742147      4.60435619 H 
atom       4.98483919      5.28668589      4.61074132 H 
atom      22.78119349      5.20404895      2.10821488 H 
atom      20.40832551      1.81794656      2.10083842 H 
atom      22.83955700      5.27477979      4.59643796 H 
atom      20.36942485      1.72323307      4.58913800 H 
atom      19.48726187      3.02304232      6.50163640 H 
atom      23.70682405      3.98031439      6.51879553 H 
atom      19.57016082      3.04449877      8.99041429 H 
atom      23.59624859      3.99190731      9.00581643 H 
atom       5.86566728      3.98839308      6.52231230 H 
atom       1.65016144      3.01290778      6.52787001 H 
atom       5.77478846      3.96947400      9.01182879 H 
atom       1.75335316      3.00329242      9.01385515 H 
atom      24.20669441      8.13827879     -0.38941643 H 
atom      18.85113113      8.08907716     -0.40872737 H 
atom      18.93133530     -1.08660658     -0.43696638 H 
atom      24.28714846     -1.03877286     -0.40841979 H 
atom       6.46197296      8.07863751     -0.31685454 H 
atom       1.11104617      8.11622489     -0.43270384 H 
atom       1.04484443     -1.05980699     -0.50236769 H 
atom       6.39316937     -1.09942875     -0.27034283 H 
atom      11.42363494      5.63595513     -0.19517466 H 
atom      11.43031799      1.28498153     -0.13871372 H 
atom      17.00263801      0.81045877     -0.33331514 H 
atom       8.31525133      0.80171006     -0.16716481 H 
atom       8.35655194      6.14826754     -0.20224627 H 
atom      16.95686154      6.15647994     -0.32095290 H 
atom      26.18104867      0.89323768     -0.32397660 H 
atom      26.13459191      6.24025795     -0.30057877 H 
atom      -0.81403005      6.21550229     -0.40077147 H 
atom      -0.85397738      0.86894182     -0.46382058 H 
atom      31.71749139      5.74547956     -0.31605720 H 
atom      31.69966782      1.39652258     -0.46111002 H 
