lattice_vector     32.52382457      0.00000000     -0.00000000 
lattice_vector     -0.00000000     16.17512503     -0.00000000 
lattice_vector     -0.00000000     -0.00000000     11.84183854 
atom      28.43766779      0.67898849      0.02807909 B 
atom      28.44382476      6.27836090      0.02986304 B 
atom      11.06357802      0.67782246      0.03053618 B 
atom      11.06937900      6.27996963      0.02745305 B 
atom      -1.04936333      3.48379000      0.09920277 H 
atom       3.49143495     -1.04951500     -0.07733815 H 
atom       3.48968949      8.01099829     -0.07424800 H 
atom       8.03191703      3.47763066      0.09162923 H 
atom      15.21620781      3.48298432      0.10086942 H 
atom       1.44348195      3.25752949      9.37012227 H 
atom       1.33809178      3.25353824      6.88443596 H 
atom       4.74614349      5.24988624      4.96312011 H 
atom       4.70063723      5.16641653      2.47539860 H 
atom       2.30466312      1.79244079      2.47503918 H 
atom       2.23092744      1.72899392      4.96280012 H 
atom       5.56395394      3.69544413      9.35070643 H 
atom       5.64090144      3.72050798      6.86321757 H 
atom      18.57576881      1.79118039      2.47414528 H 
atom      20.95750363      5.17369542      2.48181885 H 
atom      20.98491097      5.26395503      4.97204160 H 
atom      18.48784441      1.73126008      4.96349678 H 
atom      21.89228474      3.72798246      6.85040591 H 
atom      21.83406317      3.70232505      9.34156250 H 
atom      17.71593375      3.25783838      9.38880577 H 
atom      17.59139710      3.25617249      6.90276689 H 
atom      19.75256250     -1.04997950     -0.07528938 H 
atom      19.75159026      8.01072261     -0.06738929 H 
atom      24.29085247      3.47650866      0.08148513 H 
atom       3.49271397      6.92043729     -0.05656132 C 
atom       2.24245929      6.29208449     -0.02890679 C 
atom       0.67224929      4.73075985      0.03399499 C 
atom       0.96584692      7.00528120     -0.00207700 C 
atom      -0.02995613      6.01061483      0.03526524 C 
atom       0.04051738      3.48097195      0.06083824 C 
atom       0.66622049      2.22859217      0.02605571 C 
atom       0.96051303     -0.04650522     -0.02396761 C 
atom       2.23722622      0.66487416     -0.04275907 C 
atom       3.48971913      0.04103020     -0.05859418 C 
atom       4.74074373      0.66823944     -0.03173587 C 
atom       4.74571536      6.29743436     -0.04311818 C 
atom       6.02232644      7.00830709     -0.02554394 C 
atom       6.31702056      4.73310467      0.02174223 C 
atom       7.01885954      6.01214017      0.01279891 C 
atom       6.94202017      3.48014332      0.05515419 C 
atom       6.31128955      2.22954909      0.02976486 C 
atom       7.01348675      0.94961930      0.03105251 C 
atom       6.01712763     -0.04480754     -0.00561723 C 
atom       8.39145953      0.79336396      0.03219899 C 
atom       9.62128679      0.71690925      0.03188337 C 
atom      13.61218966      0.73769119      0.02487383 C 
atom      14.84290356      0.79350224      0.02156950 C 
atom       0.81928225      8.38144433     -0.00438631 C 
atom       0.76465922      9.61550659     -0.00738853 C 
atom       0.72637716     10.94675866     -0.01065007 C 
atom       0.72502280     12.18674874     -0.01389136 C 
atom       0.75872468     13.51821214     -0.01743617 C 
atom       0.81381105     14.75223629     -0.02019664 C 
atom       6.17020414      8.38449133     -0.02131662 C 
atom       6.22529023      9.61845213     -0.01803268 C 
atom       6.26258076     10.94964976     -0.01429152 C 
atom       6.26047804     12.18956732     -0.01109126 C 
atom       6.22253918     13.52067477     -0.00838030 C 
atom       6.16296701     14.75440948     -0.00601006 C 
atom       8.39702418      6.16817368      0.01855016 C 
atom       9.62705116      6.24152701      0.02277915 C 
atom      13.61777803      6.22040103      0.03357132 C 
atom      14.84870990      6.16758340      0.03610976 C 
atom      -0.03584358      0.94946572      0.01654767 C 
atom      19.75456724      6.92006376     -0.05062451 C 
atom      18.50371112      6.29263757     -0.02349336 C 
atom      16.93388231      4.73154177      0.03726170 C 
atom      17.22567173      7.00390784      0.00228621 C 
atom      16.22697182      6.01116202      0.03777357 C 
atom      16.30533515      3.48083761      0.06240176 C 
atom      16.92893861      2.22811951      0.02665812 C 
atom      17.22034329     -0.04454263     -0.02313373 C 
atom      18.49894643      0.66458547     -0.04179417 C 
atom      19.75139606      0.04067211     -0.05709884 C 
atom      21.00306070      0.66707680     -0.03123765 C 
atom      21.00821297      6.29781360     -0.03869358 C 
atom      22.28641133      7.00680642     -0.02208892 C 
atom      22.57893635      4.73377507      0.02043284 C 
atom      23.28629862      6.01270509      0.01251127 C 
atom      23.20073262      3.47972183      0.04938421 C 
atom      22.57223744      2.22848451      0.02587495 C 
atom      23.28063503      0.94885313      0.02542904 C 
atom      22.28108566     -0.04402438     -0.00768427 C 
atom      24.65860573      0.79364185      0.02812259 C 
atom      25.88939882      0.73853275      0.02843482 C 
atom      29.87989844      0.71773045      0.02518962 C 
atom      31.10974749      0.79399801      0.02170460 C 
atom      17.07831195      8.38037892      0.00002289 C 
atom      17.02056039      9.61492946     -0.00341929 C 
atom      16.98072126     10.94667553     -0.00735658 C 
atom      16.97945378     12.18731213     -0.01138746 C 
atom      17.01405934     13.51933039     -0.01581692 C 
atom      17.07236912     14.75378837     -0.01866750 C 
atom      22.43461251      8.38324450     -0.01780441 C 
atom      22.49431479      9.61752962     -0.01496981 C 
atom      22.53367080     10.94906604     -0.01190616 C 
atom      22.53165330     12.18960181     -0.00965104 C 
atom      22.49170301     13.52100924     -0.00813429 C 
atom      22.42768739     14.75513367     -0.00661218 C 
atom       3.48808780      3.48964251      5.18031853 C 
atom       2.78432123      2.51831022      4.45305423 C 
atom       2.82796412      2.54851787      3.06283458 C 
atom       4.16850455      4.41653247      3.06297023 C 
atom       4.19762627      4.45693138      4.45322837 C 
atom       3.48901047      3.48885769      6.65786403 C 
atom       4.64336965      3.60791327      8.77017284 C 
atom       4.68467026      3.62751266      7.37948294 C 
atom       2.30057988      3.34423550      7.38939276 C 
atom       2.35680310      3.35286945      8.77986114 C 
atom      19.09143566      2.55028427      3.06492673 C 
atom      20.42413732      4.42409364      3.06869664 C 
atom      20.44441033      4.46744025      4.45892306 C 
atom      19.73677464      3.49718137      5.18400675 C 
atom      19.04002106      2.52222714      4.45514626 C 
atom      19.74056375      3.49563802      6.66148777 C 
atom      20.94096140      3.63440508      7.37562389 C 
atom      20.90998923      3.61412400      8.76639928 C 
atom      18.55744095      3.34855748      7.40039308 C 
atom      18.62357315      3.35602505      8.79045495 C 
atom      24.66456030      6.16996451      0.01880094 C 
atom      25.89548622      6.21902707      0.02279569 C 
atom      29.88587976      6.23916025      0.03242312 C 
atom      31.11583430      6.16583659      0.03435608 C 
atom      16.22176082      0.94953515      0.01655447 C 
atom       2.01789960      4.94792676     -0.01007119 N 
atom       2.01309362      2.01028345     -0.01142260 N 
atom       4.96603476      2.01161285     -0.01265966 N 
atom      12.33837812      0.68250543      0.02825712 N 
atom       3.50304102      3.47820676      9.46898348 N 
atom       3.50147083      3.48005242      2.36754853 N 
atom      19.76537594      3.48275072      2.37223307 N 
atom      19.77373593      3.48279520      9.47156923 N 
atom       4.97030521      4.95243221     -0.01341483 N 
atom      12.34406718      6.27375441      0.03090024 N 
atom      18.28059792      4.94796732     -0.00539510 N 
atom      18.27712305      2.01056012     -0.01129034 N 
atom      27.16301766      0.68617170      0.02891277 N 
atom      27.16914903      6.27227801      0.02659033 N 
atom      21.22636052      2.01051580     -0.01239922 N 
atom      21.23157344      4.95291151     -0.01152931 N 
atom       3.49731991      3.48105755     -0.01214362 Zn 
atom      19.76034501      3.48415316     -0.01210800 Zn 
