lattice_vector     35.77857415      0.00000000      0.00000000 
lattice_vector     -0.00000000     16.17862839     -0.00000000 
lattice_vector     -0.00000000      0.00000000     11.86934040 
atom      34.51741644      0.80972189     -0.47670057 C 
atom      33.29825010      0.75270561     -0.55359530 C 
atom      31.89257410      0.70968139     -0.61993831 C 
atom      31.18290043      1.80317230     -1.16867042 C 
atom      29.80373924      1.76836511     -1.17746749 C 
atom      29.05076067      0.69717765     -0.64362663 C 
atom      29.80591968     -0.38925415     -0.14172937 C 
atom      31.18635657     -0.40798230     -0.12103640 C 
atom      27.65180008      0.73388051     -0.58751684 C 
atom      26.43380616      0.80424410     -0.50902585 C 
atom      25.05342394      0.95923645     -0.44138661 C 
atom      24.35216122      2.23799634     -0.39540981 C 
atom      22.78221667      0.67648533     -0.40333268 C 
atom      24.06204184     -0.03589812     -0.42679860 C 
atom      21.53111795      0.04993785     -0.40987271 C 
atom      20.27942023      0.67552324     -0.39798896 C 
atom      18.99794381     -0.03206446     -0.36421986 C 
atom      18.00751512      0.96621590     -0.31805123 C 
atom      18.71150000      2.24294199     -0.34733022 C 
atom      18.08537039      3.49570285     -0.36348570 C 
atom      18.71808172      4.74511346     -0.40094457 C 
atom      20.28810118      6.30627547     -0.40508160 C 
atom      19.00820765      7.01762938     -0.41971375 C 
atom      18.01526748      6.02313073     -0.43345313 C 
atom      21.53924466      6.93294416     -0.40469331 C 
atom      22.78988476      6.30573948     -0.39233866 C 
atom      24.06945116      7.01382856     -0.35805449 C 
atom      24.35852627      4.73998861     -0.33809535 C 
atom      25.06003025      6.01710917     -0.31108899 C 
atom      26.44098816      6.16466657     -0.24353325 C 
atom      27.65981764      6.22637554     -0.17392309 C 
atom      29.05904294      6.25539617     -0.12703445 C 
atom      29.81433951      7.34779999     -0.61470724 C 
atom      31.19459661      7.36610431     -0.63274902 C 
atom      31.89936612      6.24070452     -0.14998899 C 
atom      31.18931961      5.13502951      0.37347745 C 
atom      29.81038791      5.17208032      0.38489560 C 
atom      33.30514517      6.20373256     -0.19913041 C 
atom      34.52546408      6.15626773     -0.26154288 C 
atom      24.98540291      3.48722146     -0.35423889 C 
atom      24.21802539      8.39092116     -0.36263648 C 
atom      24.25661713      9.62549159     -0.36394708 C 
atom      24.29103736     10.95836714     -0.37078261 C 
atom      24.28547240     12.19818404     -0.38593620 C 
atom      24.24436215     13.53083295     -0.41018347 C 
atom      24.20941488     14.76561864     -0.43254076 C 
atom      18.85536826      8.39386510     -0.41587406 C 
atom      18.80578786      9.62797271     -0.40094490 C 
atom      18.76550271     10.96040049     -0.38642646 C 
atom      18.76329238     12.20026692     -0.37616742 C 
atom      18.79840044     13.53334844     -0.36878523 C 
atom      18.85044047     14.76739078     -0.36245340 C 
atom      16.63338119      6.17203868     -0.48392143 C 
atom      15.41375053      6.23284554     -0.54701680 C 
atom      14.01347794      6.26013347     -0.58581000 C 
atom      13.26011278      5.17658965     -1.09575418 C 
atom      13.25671275      7.34844161     -0.09088371 C 
atom      11.87677011      7.35943810     -0.05801143 C 
atom      11.17163744      6.23259681     -0.53652111 C 
atom      11.88144498      5.13356763     -1.07350325 C 
atom       9.76709186      6.19055547     -0.46740854 C 
atom       8.54676047      6.14844810     -0.40149461 C 
atom       7.16461312      6.00621831     -0.34953915 C 
atom       6.17636426      7.00595179     -0.34846001 C 
atom       6.33018150      8.38271060     -0.34149220 C 
atom       6.37832718      9.61685416     -0.32746115 C 
atom       6.41014040     10.94964563     -0.31291304 C 
atom       6.40851293     12.18953694     -0.30157463 C 
atom       6.37372274     13.52237924     -0.29048905 C 
atom       6.30737686     14.75575004     -0.27976719 C 
atom       4.89531751      6.30305207     -0.34867470 C 
atom       6.45789652      4.73261837     -0.32003541 C 
atom       3.64592993      6.93145934     -0.35684660 C 
atom       2.39799017      6.30009667     -0.35097831 C 
atom       1.11802391      7.00922022     -0.34085754 C 
atom       0.96632438      8.38585207     -0.35319413 C 
atom       0.91819892      9.62018667     -0.35704165 C 
atom       0.87338863     10.95316118     -0.36351410 C 
atom       0.87468310     12.19302289     -0.37175565 C 
atom       0.91830003     13.52650234     -0.38345529 C 
atom       0.95729033     14.76122089     -0.39218036 C 
atom       0.12799795      6.01362623     -0.30854276 C 
atom       0.83242987      4.73781034     -0.31799340 C 
atom       0.20117791      3.48813161     -0.33334188 C 
atom       0.82352533      2.23451786     -0.35915284 C 
atom       0.11935803      0.96003793     -0.40485098 C 
atom       1.10839371     -0.03894160     -0.38476452 C 
atom       2.38867542      0.66657452     -0.35388113 C 
atom       3.63721277      0.03750553     -0.33786217 C 
atom       4.88650350      0.66585004     -0.30533782 C 
atom       6.45079018      2.22846580     -0.25556449 C 
atom       6.16454288     -0.04453413     -0.27368563 C 
atom       7.15524544      0.95145131     -0.23071579 C 
atom       7.08025321      3.47903943     -0.27343252 C 
atom       8.53651531      0.80448555     -0.16731046 C 
atom       9.75684587      0.75298160     -0.10280161 C 
atom      11.16339552      0.72503678     -0.06221411 C 
atom      11.87271603      1.82116152      0.48223738 C 
atom      13.25199496      1.79728524      0.46930026 C 
atom      14.00746311      0.73511309     -0.08081194 C 
atom      13.25271800     -0.35239273     -0.58109743 C 
atom      11.87240814     -0.38147067     -0.58172437 C 
atom      15.40667603      0.77819054     -0.14980370 C 
atom      16.62582413      0.81743963     -0.23766988 C 
atom       2.94309982      2.58848858      2.76513614 C 
atom       4.31674373      4.43268419      2.76543521 C 
atom       2.91500925      2.54779799      4.15539356 C 
atom       4.35395857      4.46598524      4.15595814 C 
atom      22.24709677      4.41050232      2.70876628 C 
atom      20.85817269      2.57839155      2.70758750 C 
atom      22.29328083      4.43681155      4.09921489 C 
atom      20.83825978      2.53122813      4.09776802 C 
atom       3.63823133      3.50397250      4.88420645 C 
atom      21.57051989      3.47993584      4.82746171 C 
atom      21.57082950      3.47660599      6.30322016 C 
atom      20.39436047      3.22901160      7.02735075 C 
atom      22.74046448      3.72548725      7.03766804 C 
atom      20.43436402      3.24514098      8.41777805 C 
atom      22.68512167      3.71731803      8.42800673 C 
atom       3.64629692      3.49547404      6.35957217 C 
atom       4.82300033      3.73946496      7.08442548 C 
atom       2.47749370      3.23943379      7.09235229 C 
atom       4.78292417      3.71419976      8.47517934 C 
atom       2.53279329      3.24067643      8.48224138 C 
atom      31.70870627      2.66056755     -1.58346655 H 
atom      31.71447335     -1.26446423      0.29249507 H 
atom      21.53289775     -1.04102230     -0.41962643 H 
atom      16.99477351      3.49830583     -0.35210906 H 
atom      21.54127877      8.02349252     -0.40923154 H 
atom      31.72593277      8.22842686     -1.02786363 H 
atom      31.71537123      4.26984929      0.77116427 H 
atom      26.07642021      3.48400707     -0.34375176 H 
atom      11.34696486      8.21702605      0.34994097 H 
atom      11.35760276      4.26645000     -1.47028428 H 
atom       3.64126775      8.02198401     -0.36550356 H 
atom      -0.88914942      3.49176060     -0.33607696 H 
atom       3.63369101     -1.05314629     -0.34914770 H 
atom       8.17075930      3.47594859     -0.25791757 H 
atom      11.34744646      2.67153268      0.91231899 H 
atom      11.34639065     -1.23940507     -0.99534621 H 
atom       2.39984353      1.85061381      2.17334172 H 
atom       4.85625748      5.17412424      2.17474590 H 
atom       2.35749955      1.75991330      4.66234825 H 
atom       4.91549158      5.25039485      4.66429453 H 
atom      22.78924706      5.15077984      2.11934548 H 
atom      20.30453513      1.84765132      2.11680008 H 
atom      22.86474869      5.21439567      4.60693467 H 
atom      20.27645116      1.74585836      4.60379787 H 
atom      19.44871429      3.05310244      6.51432601 H 
atom      23.69193919      3.89976221      6.53464398 H 
atom      19.53025633      3.06260127      9.00065771 H 
atom      23.58301777      3.90293886      9.01940827 H 
atom       5.76803408      3.92090947      6.57196054 H 
atom       1.52641072      3.06662107      6.58831455 H 
atom       5.68699638      3.89264166      9.05958974 H 
atom       1.63502755      3.05112769      9.07237582 H 
atom      29.12886558      2.80555039     -1.71833814 F 
atom      29.12833547     -1.44211428      0.35756400 F 
atom      29.13956344      8.40686785     -1.10303318 F 
atom      29.13266510      4.12785918      0.90812302 F 
atom      13.92945979      8.41247332      0.38983493 F 
atom      13.93745628      4.13637716     -1.62763282 F 
atom      13.92907360      2.83529892      1.00558199 F 
atom      13.92822450     -1.39834735     -1.09795122 F 
atom      23.00587390      2.02038286     -0.38224026 N 
atom      20.05911583      2.02180801     -0.38835777 N 
atom      20.06476997      4.96230558     -0.39346623 N 
atom      23.01132378      4.95984841     -0.38173008 N 
atom       5.11097289      4.95611429     -0.32841515 N 
atom       2.17810009      4.95549682     -0.34042309 N 
atom       2.17072781      2.01304977     -0.33538275 N 
atom       5.10539400      2.01002131     -0.29455113 N 
atom       3.62858106      3.51159245      2.07074130 N 
atom      21.54543951      3.50013003      2.01295887 N 
atom      21.55581008      3.48433795      9.11651674 N 
atom       3.66112081      3.47158401      9.17213858 N 
atom      21.53370717      3.49290828     -0.38786795 Zn 
atom       3.63917967      3.48302523     -0.32431916 Zn 
