lattice_vector     35.39861405     -0.00000000     -0.00000000 
lattice_vector     -0.00000000     16.09471130     -0.00000000 
lattice_vector     -0.00000000     -0.00000000     11.83631364 
atom       1.49756761      2.91530387      9.35691235 H 
atom       1.40326063      2.89569211      6.86787793 H 
atom       4.57951361      5.37735587      4.95139812 H 
atom       4.54692491      5.28399645      2.46262206 H 
atom       2.43078315      1.73120629      2.46496260 H 
atom       2.37884750      1.65219758      4.95350285 H 
atom       5.44940764      4.13445604      9.35607663 H 
atom       5.54697626      4.14312697      6.86820588 H 
atom      20.16091676      1.72271426      2.42836606 H 
atom      22.20522717      5.31715898      2.42811662 H 
atom      22.25255095      5.40112106      4.91724433 H 
atom      20.12840725      1.63148858      4.91790520 H 
atom      23.25230989      4.18144067      6.83206033 H 
atom      23.15815728      4.16147270      9.32191121 H 
atom      19.23389629      2.85821202      9.32191699 H 
atom      19.13651844      2.84522881      6.83321740 H 
atom      13.44122718      1.34897092      0.12777543 H 
atom      13.43779619      5.68042765      0.10039248 H 
atom      28.92990349      1.35058727      0.22226717 H 
atom      28.93050546      5.68136958      0.28965598 H 
atom      -1.10801586      0.84146975      0.08400209 H 
atom       0.80364683     -1.07086944     -0.06081354 H 
atom       0.80813786      8.10260983      0.03856775 H 
atom       8.07342875      0.84015605      0.04577392 H 
atom      16.59804650      0.83979974     -0.01299987 H 
atom      18.51021010     -1.06961391     -0.12223644 H 
atom      18.51557720      8.10436054     -0.10433700 H 
atom      25.77129677      0.83854068      0.10798187 H 
atom      -1.10414515      6.18944394      0.16057270 H 
atom       8.07594748      6.18849335      0.00769873 H 
atom      16.60146131      6.19465836      0.00054487 H 
atom      25.77563792      6.19345679      0.06620836 H 
atom       6.16122519      8.10165636     -0.09437682 H 
atom      23.86503246      8.10375522     -0.08270955 H 
atom       6.15922664     -1.07147979     -0.05576439 H 
atom      23.85991054     -1.07090574     -0.02191718 H 
atom       3.48211596      6.97758290     -0.06809471 C 
atom       2.20870724      6.33474679     -0.01290398 C 
atom       0.66177056      4.78837915      0.08070918 C 
atom       3.47845105      3.51535848      5.17209679 C 
atom       2.85983761      2.48800448      4.44467356 C 
atom       2.89538765      2.52321297      3.05453127 C 
atom       4.07784885      4.49553596      3.05343591 C 
atom       4.10237340      4.53878577      4.44353032 C 
atom       3.47534320      3.51887472      6.64885456 C 
atom       4.57187540      3.86420712      8.76649281 C 
atom       4.61924677      3.87934943      7.37648043 C 
atom       2.33017934      3.16182777      7.37643825 C 
atom       2.37574090      3.18285833      8.76672886 C 
atom      20.61367867      2.52090638      3.01897027 C 
atom      21.75628427      4.51687219      3.01867724 C 
atom      21.78954259      4.55494329      4.40888376 C 
atom      21.19132034      3.51590806      5.13690290 C 
atom      20.58881784      2.47888338      4.40921628 C 
atom      21.19411746      3.51381260      6.61363123 C 
atom      22.33132730      3.89595315      7.34096375 C 
atom      22.28628164      3.87481098      8.73129455 C 
atom      20.05820242      3.12937166      7.34152170 C 
atom      20.10512395      3.14667479      8.73152990 C 
atom       0.93887895      7.02469429      0.04271053 C 
atom      -0.02727876      6.05983812      0.10521676 C 
atom       0.02100837      3.51661364      0.10766227 C 
atom       0.65711877      2.24201535      0.05233466 C 
atom       0.93687758      0.00643659     -0.03270786 C 
atom       2.20644491      0.69343340     -0.06050611 C 
atom       3.48337269      0.05366932     -0.09030729 C 
atom       4.75766394      0.69638896     -0.05700605 C 
atom       4.75912932      6.33737113     -0.06384385 C 
atom       6.02902165      7.02424262     -0.06346251 C 
atom       6.31029760      4.78854234      0.01370414 C 
atom      13.69038979      3.51467980      0.10273070 C 
atom      12.93244845      2.31755089      0.11979365 C 
atom      10.98813291      3.51248442      0.11452754 C 
atom      12.93078010      4.71081561      0.10500112 C 
atom       8.35466861      3.51382835      0.08451557 C 
atom       9.57595335      3.51162727      0.10099471 C 
atom      15.09059167      3.51520046      0.07932716 C 
atom      16.31367259      3.52106313      0.05720891 C 
atom      26.05799238      3.51408224      0.14703999 C 
atom      27.28013189      3.51591747      0.19955466 C 
atom      31.38160526      3.51575990      0.24860754 C 
atom      29.43840926      2.31912283      0.23319405 C 
atom      28.67985534      3.51594073      0.23659171 C 
atom      29.43832009      4.71235322      0.27002580 C 
atom      32.79332363      3.51668269      0.21788663 C 
atom      34.01378685      3.51720155      0.17140819 C 
atom       6.99778351      6.05806238     -0.01052554 C 
atom       6.94771926      3.51372628      0.04663384 C 
atom       6.30637488      2.24212754      0.02029801 C 
atom       6.99567309      0.97061950      0.01568799 C 
atom       6.02843979      0.00623489     -0.03633886 C 
atom       3.48110511      8.37799338     -0.10284168 C 
atom       3.48115958      9.61126559     -0.12839824 C 
atom       3.48081762     10.94313563     -0.14845591 C 
atom       3.48369386     12.18254808     -0.15392947 C 
atom       3.48516821     13.51452003     -0.14303284 C 
atom       3.48397782     14.74794648     -0.12584297 C 
atom      -0.03062246      0.97253287      0.04188157 C 
atom      21.18839266      6.97924690     -0.12684065 C 
atom      19.91457472      6.33552784     -0.09550323 C 
atom      18.36435445      4.78989697     -0.01551231 C 
atom      18.64549478      7.02657439     -0.08045816 C 
atom      17.67845697      6.06188230     -0.02662449 C 
atom      17.72080509      3.51935381      0.01609036 C 
atom      18.35916815      2.24454545     -0.01502659 C 
atom      18.64288994      0.00769634     -0.09225075 C 
atom      19.91122443      0.69496600     -0.09905678 C 
atom      21.18797390      0.05434586     -0.11116439 C 
atom      22.46122579      0.69784021     -0.05931757 C 
atom      22.46476843      6.33857235     -0.09149759 C 
atom      23.73255427      7.02623053     -0.05715532 C 
atom      24.01487130      4.78944474      0.02476648 C 
atom      24.69942057      6.05940970      0.01979754 C 
atom      24.65221237      3.51507603      0.07620565 C 
atom      24.00959990      2.24412446      0.04006631 C 
atom      24.69542559      0.97220093      0.05553355 C 
atom      23.72955057      0.00700667     -0.01093654 C 
atom      21.18782571      8.37888321     -0.16593210 C 
atom      21.18903939      9.61262598     -0.18518206 C 
atom      21.18788036     10.94431540     -0.19757630 C 
atom      21.18720501     12.18406500     -0.19360219 C 
atom      21.18610566     13.51568126     -0.17372453 C 
atom      21.18916209     14.74931991     -0.14922322 C 
atom      17.67482838      0.97475704     -0.03527559 C 
atom       2.01155270      4.98510422      0.01063631 N 
atom       2.00890480      2.04422725     -0.01209158 N 
atom       4.95529873      2.04580297     -0.02309808 N 
atom       4.95738607      4.98650854     -0.01977428 N 
atom      19.71604700      4.98651109     -0.05699998 N 
atom      19.71246959      2.04581578     -0.05414277 N 
atom      11.60736912      2.30280562      0.12563994 N 
atom      11.60562990      4.72327127      0.11026469 N 
atom      30.76348754      2.30548800      0.23833251 N 
atom      30.76335314      4.72574673      0.27599822 N 
atom       3.47350137      3.52476117      9.45908150 N 
atom       3.48950281      3.50729309      2.36077927 N 
atom      21.18301251      3.51988342      2.32589321 N 
atom      21.19605473      3.50995736      9.42376841 N 
atom      22.65919543      2.04719126     -0.02908546 N 
atom      22.66280630      4.98787772     -0.04445607 N 
atom       3.48293323      3.51506836     -0.01608327 Zn 
atom      21.18748375      3.51691950     -0.05043068 Zn 
