lattice_vector 25.270000 0.0000000 0.00000000  
lattice_vector 0.000000  25.240000 0.00000000  
lattice_vector 0.000000  0.000000  7.65431459  
atom 9.0775905715 0.000000  0.03587758 C 
atom 9.0865608009 1.4046446681 0.06264696 C 
atom 10.4867583967 1.8049478508 0.02815639 C 
atom 10.9262457673 3.1322796838 0.00417739 C 
atom 12.2536758457 3.5727779626 -0.01864747 C 
atom 14.4679799744 3.5739256181 0.0098019 C 
atom 14.0605359466 4.9788369433 -0.00726799 C 
atom 12.6560690522 4.9711516471 -0.04182852 C 
atom 15.7958576302 3.137318258 0.02145332 C 
atom 16.2296136882 1.8088733117 0.02063306 C 
atom 17.6321013766 1.4018004443 0.04085807 C 
atom 17.6240132983 -0.0030101889 0.0541009 C 
atom 11.7813852329 6.0517087714 -0.10695144 C 
atom 10.9609963321 6.954718164 -0.1790658 C 
atom 9.9888533216 7.9604207169 -0.22697895 C 
atom 8.6966458724 7.7258809212 -0.75209973 C 
atom 10.2222886943 9.2605519268 0.2794768 C 
atom 9.2542503043 10.2429675513 0.30726552 C 
atom 7.9645575531 9.9447136587 -0.18631874 C 
atom 7.6913315707 8.6698616858 -0.73369929 C 
atom 6.9446346728 10.9095527228 -0.1137169 C 
atom 6.0522230359 11.7415465682 -0.04070556 C 
atom 4.9794992124 12.621313863 0.0264343 C 
atom 4.9923200412 14.0255948873 0.05971224 C 
atom 3.5910286785 14.436322224 0.074151  C 
atom 3.5786651356 12.2257610095 0.04740335 C 
atom 3.1589439946 15.7645032923 0.07770877 C 
atom 1.8308828587 16.1991662359 0.07343776 C 
atom 1.4272883486 17.603220774 0.07266739 C 
atom 0.0234002069 17.597870005 0.08342998 C 
atom 1.8068374947 10.4612296641 0.09174101 C 
atom 0.0000000000 8.8252690832 0.0945687 C 
atom 1.4046884027 9.0602355478 0.11717599 C 
atom 3.1334717739 10.9004362496 0.06650186 C 
atom 2.2812706622 7.9833552516 0.178426  C 
atom 3.1105207283 7.0872132234 0.24207835 C 
atom 4.0856182359 6.0736290674 0.28617472 C 
atom 5.3578984048 6.3500137383 0.84001801 C 
atom 6.3157366805 5.3581284833 0.83282392 C 
atom 6.0980659353 4.0734848564 0.28155391 C 
atom 4.8010352471 3.835231753 -0.22957237 C 
atom 3.8057390363 4.7916740161 -0.23763918 C 
atom 7.1178641457 3.116050565 0.21779287 C 
atom 8.0078260323 2.2819517687 0.13686959 C 
atom 2.0307512361 13.7121189868 3.12294879 C 
atom 0.323303016 12.019217933 3.12382322 C 
atom 0.3224441994 12.0191887932 4.67601602 C 
atom 2.0317148671 13.7117567926 4.67519216 C 
atom 12.3345951871 1.6627518945 3.05689811 C 
atom 12.3348524962 1.6579985035 4.61046337 C 
atom 14.6764832994 1.1283950971 4.6097272 C 
atom 14.6764876835 1.1354989746 3.05703439 C 
atom 2.2915615478 18.6795677986 0.060000  C 
atom 3.1235553932 19.5719794354 -0.01301134 C 
atom 4.0883944574 20.5919023158 -0.08561318 C 
atom 3.7901405647 21.8815950669 0.40797108 C 
atom 5.3632464302 20.3186763333 -0.63299373 C 
atom 6.3072271949 21.323990635 -0.65139417 C 
atom 6.0726873992 22.6161980842 -0.12627339 C 
atom 4.7725561892 22.8496334569 0.38018236 C 
atom 7.9813993447 24.4087299955 -0.00624588 C 
atom 7.078389952 23.5883410947 -0.07836024 C 
atom 6.0745828272 14.8965465192 0.0600000 C 
atom 6.9707248553 15.7257965853 0.12365235 C 
atom 7.9843090113 16.7008940929 0.16774872 C 
atom 7.7079243404 17.9731742618 0.72159201 C 
atom 9.2662640627 16.4210148933 -0.35606518 C 
atom 10.2227063257 17.4163111042 -0.34799837 C 
atom 9.9844532224 18.7133417923 0.16312791 C 
atom 8.6998095954 18.9310125375 0.71439792 C 
atom 10.9418875138 19.7331400027 0.09936687 C 
atom 11.77598631 20.6231018893 0.01844359 C 
atom 18.7035099392 2.2676194072 0.0430000 C 
atom 19.5996519673 3.0968694733 0.10665235 C 
atom 20.3368514524 5.3442471499 0.70459201 C 
atom 20.6132361233 4.071966981 0.15074872 C 
atom 21.8951911747 3.7920877813 -0.37306518 C 
atom 22.8516334377 4.7873839922 -0.36499837 C 
atom 22.6133803344 6.0844146803 0.14612791 C 
atom 21.3287367074 6.3020854255 0.69739792 C 
atom 23.5708146258 7.1042128907 0.08236687 C 
atom 24.404913422 7.9941747773 0.00144359 C 
atom 14.9204886598 6.0506406866 0.0430000 C 
atom 15.7524825052 6.9430523234 -0.03001134 C 
atom 16.7173215694 7.9629752038 -0.10261318 C 
atom 16.4190676767 9.2526679549 0.39097108 C 
atom 17.9921735422 7.6897492213 -0.64999373 C 
atom 18.9361543069 8.6950635231 -0.66839417 C 
atom 18.7016145112 9.9872709722 -0.14327339 C 
atom 17.4014833012 10.2207063449 0.36318236 C 
atom 19.707317064 10.9594139827 -0.09536024 C 
atom 20.6103264567 11.7798028836 -0.02324588 C 
atom 24.8578573175 10.4412155016 -0.01518612 C 
atom 23.5294472103 10.8764239499 -0.00527493 C 
atom 23.0965416886 12.2056033115 0.00862151 C 
atom 21.6923755479 12.6147849764 0.03587758 C 
atom 21.7013457773 14.0194296445 0.06264696 C 
atom 23.1015433731 14.4197328272 0.02815639 C 
atom 23.5410307437 15.7470646602 0.00417739 C 
atom 24.8684608221 16.1875629389 -0.01864747 C 
atom 24.3961702093 18.6664937477 -0.10695144 C 
atom 23.5757813084 19.5695031404 -0.1790658 C 
atom 22.603638298 20.5752056932 -0.22697895 C 
atom 21.3114308488 20.3406658975 -0.75209973 C 
atom 22.8370736706 21.8753369032 0.2794768 C 
atom 21.8690352807 22.8577525277 0.30726552 C 
atom 20.5793425295 22.559498635 -0.18631874 C 
atom 20.306116547 21.2846466622 -0.73369929 C 
atom 19.5594196491 23.5243376992 -0.1137169 C 
atom 18.6670080123 24.3563315446 -0.04070556 C 
atom 16.193450112 24.8405459859 0.04740335 C 
atom 10.4550297871 24.8390425142 0.05565026 C 
atom 10.8847193306 23.5094209563 0.06583692 C 
atom 12.2115934675 23.0739667531 0.07722417 C 
atom 14.421622471 23.0760146404 0.09174101 C 
atom 12.6147849763 21.6705506264 0.0945687 C 
atom 14.019473379 21.6750205242 0.11717599 C 
atom 15.7482567503 23.515221226 0.06650186 C 
atom 14.8960556386 20.5981402279 0.178426  C 
atom 15.7253057046 19.7019981998 0.24207835 C 
atom 16.7004032123 18.6884140438 0.28617472 C 
atom 17.9726833812 18.9647987147 0.84001801 C 
atom 18.9305216569 17.9729134597 0.83282392 C 
atom 18.7128509117 16.6882698327 0.28155391 C 
atom 17.4158202235 16.4500167294 -0.22957237 C 
atom 16.4205240126 17.4064589924 -0.23763918 C 
atom 19.732649122 15.7308355413 0.21779287 C 
atom 20.6226110086 14.8967367451 0.13686959 C 
atom 12.9380879923 24.6340029094 3.12382322 C 
atom 12.9372291758 24.6339737695 4.67601602 C 
atom 24.9493801634 14.2775368708 3.05689811 C 
atom 24.9496374725 14.2727834798 4.61046337 C 
atom 10.1520724394 3.9035179246 0.00635984 H 
atom 16.5654931711 3.9078010401 0.0297144 H 
atom 24.058786583 22.1447483557 0.77825392 H 
atom 21.0645335772 19.1279459551 -1.29078971 H 
atom 9.4780677591 11.2237041507 0.72121265 H 
atom 6.7108428405 8.4325169672 -1.1414749 H 
atom 3.9281371695 16.535292888 0.07895844 H 
atom 5.582744403 7.3242096707 1.26912228 H 
atom 2.8306227195 4.5622826507 -0.66248151 H 
atom 1.0439664696 11.2915432611 2.72900477 H 
atom 2.7526777946 12.9866236604 2.72639682 H 
atom 2.2965079931 14.700718154 2.72601875 H 
atom 2.7538143415 12.9856920897 5.070322  H 
atom 2.298161329 14.699948843 5.07276132 H 
atom 1.0405369593 11.2898888151 5.07265605 H 
atom 15.4297729639 0.4431943284 2.65972514 H 
atom 14.8997142303 2.1363227312 2.6647609 H 
atom 15.4283889438 0.431592983 5.00190098 H 
atom 14.9006801311 2.1252321926 5.01159913 H 
atom 12.5643889386 2.6539341581 5.0109422 H 
atom 11.3577428596 1.353885623 5.00773554 H 
atom 12.5612181728 2.6618648556 2.6622777 H 
atom 11.3576047121 1.3589005021 2.65925699 H 
atom 3.9019197572 10.12652523 0.06321138 H 
atom 2.8094039653 22.1054125217 0.82191821 H 
atom 5.6005911488 19.3381876031 -1.04076934 H 
atom 20.1427995869 18.2221502223 1.37082572 H 
atom 17.1607735887 15.234288387 -0.75067822 H 
atom 24.0673617801 4.5323373573 -0.88610422 H 
atom 21.0794999448 7.5143633555 1.23539972 H 
atom 20.1488742493 8.4481662515 -1.20708415 H 
atom 9.495655428 15.4458985766 -0.78090751 H 
atom 17.1320718487 11.4424192573 0.86195948 H 
atom 6.733728408 18.19802026 1.15069628 H 
atom 22.7569811139 10.1066761982 -0.00989349 H 
atom 22.7668574157 16.518302901 0.00635984 H 
atom 10.1104393427 22.7418244003 0.06114749 H 
atom 11.948006892 24.3751879965 2.72589793 H 
atom 13.6587514459 23.9063282375 2.72900477 H 
atom 13.6553219356 23.9046737915 5.07265605 H 
atom 11.9460105952 24.3779294565 5.07282848 H 
atom 24.6844039958 11.6816327389 2.64945173 H 
atom 24.6808860759 11.6743705896 4.9957021 H 
atom 25.179173915 15.2687191344 5.0109422 H 
atom 23.9725278359 13.9686705994 5.00773554 H 
atom 25.1760031492 15.276649832 2.6622777 H 
atom 23.9723896885 13.9736854785 2.65925699 H 
atom 16.5167047336 22.7413102064 0.06321138 H 
atom 22.12458254 2.8169714646 -0.79790751 F 
atom 15.4383310773 9.4764854097 0.80491821 F 
atom 18.2295182608 6.7092604911 -1.05776934 F 
atom 19.36265552 5.569093148 1.13369628 F 
atom 11.4440016067 9.5299633794 0.77825392 F 
atom 8.4497486008 6.5131609787 -1.29078971 F 
atom 7.5280146105 5.6073652459 1.37082572 F 
atom 4.5459886123 2.6195034106 -0.75067822 F 
atom 7.5199471373 21.0770933635 -1.19008415 F 
atom 4.5031447367 24.0713463693 0.87895948 F 
atom 11.4384346681 17.1612644693 -0.86910422 F 
atom 8.4505728328 20.1432904675 1.25239972 F 
atom 22.0928527354 23.8384891271 0.72121265 F 
atom 18.1975293793 19.9389946471 1.26912228 F 
atom 15.4454076959 17.1770676271 -0.66248151 F 
atom 19.3256278168 21.0473019436 -1.1414749 F 
atom 11.2832747504 0.6943934821 0.00266551 N 
atom 13.3627367413 2.775071626 0.0043949 N 
atom 15.4295106485 0.7052254105 0.00641272 N 
atom 2.7869079076 13.3356690685 0.06987747 N 
atom 0.7254739505 15.4008159018 0.07105229 N 
atom 0.7005138519 11.2589826414 0.0739604 N 
atom 0.6906424998 13.3560488405 2.60091873 N 
atom 0.6913108218 13.3562074092 5.19814382 N 
atom 13.3534305231 0.7232819407 2.53181229 N 
atom 13.3521904982 0.7132790102 5.12982263 N 
atom 23.8980597267 13.3091784585 0.00266551 N 
atom 13.3152988282 23.8737676178 0.0739604 N 
atom 13.3558948821 0.7040208258 0.00011065 Zn 
atom   0.7110618132 13.332970353    0.06108279  Zn 
