lattice_vector     35.72276262      0.00000000      0.00000000 
lattice_vector      0.00000000     16.18351694     -0.00000000 
lattice_vector     -0.00000000     -0.00000000     11.84465730 
atom      34.58039396      0.82934463     -0.51081174 C 
atom      33.36170683      0.77864030     -0.59491311 C 
atom      31.95668751      0.74878252     -0.66769703 C 
atom      31.25175195      1.81662665     -1.26734508 C 
atom      29.86859590      1.78155562     -1.31261852 C 
atom      29.12272099      0.71930362     -0.73290199 C 
atom      29.86472750     -0.35591924     -0.17517890 C 
atom      31.24780297     -0.35232574     -0.14084085 C 
atom      27.72522672      0.75057174     -0.66585140 C 
atom      26.50862123      0.82328970     -0.57308693 C 
atom      25.13061547      0.96825469     -0.48963567 C 
atom      24.42822386      2.24500606     -0.43167317 C 
atom      22.86232102      0.68020580     -0.44759568 C 
atom      24.14152330     -0.03032493     -0.47463358 C 
atom      21.61239569      0.05231737     -0.44534959 C 
atom      20.36394077      0.68204642     -0.41404592 C 
atom      19.08301909     -0.02034950     -0.34842360 C 
atom      18.10058729      0.98350424     -0.26985437 C 
atom      18.80667932      2.25726845     -0.32776429 C 
atom      18.18383163      3.51218464     -0.35131737 C 
atom      18.81555196      4.76118847     -0.41999459 C 
atom      20.37993833      6.32638269     -0.44499768 C 
atom      19.10098609      7.03653766     -0.46478619 C 
atom      18.11207842      6.03827031     -0.47132379 C 
atom      21.62943755      6.95438672     -0.44624771 C 
atom      22.87697273      6.32360684     -0.41893788 C 
atom      24.15667926      7.02752844     -0.35482946 C 
atom      24.43685535      4.74960238     -0.33978908 C 
atom      25.14058650      6.02454435     -0.28284093 C 
atom      26.51557185      6.17312634     -0.16230425 C 
atom      27.72962339      6.25796158     -0.05029485 C 
atom      29.12649361      6.29029230      0.02577221 C 
atom      29.87265000      7.36323101     -0.52937870 C 
atom      31.25614939      7.35648747     -0.56107531 C 
atom      31.96110754      6.25124774     -0.03812533 C 
atom      31.25130233      5.18431247      0.55855284 C 
atom      29.86885937      5.22515655      0.60592756 C 
atom      33.36542932      6.21279143     -0.11115038 C 
atom      34.58359676      6.15687902     -0.20089833 C 
atom      25.06019879      3.49476287     -0.36636112 C 
atom      24.32122190      8.40313793     -0.35856735 C 
atom      24.39300928      9.63663214     -0.35906127 C 
atom      24.43391075     10.97029075     -0.38557936 C 
atom      24.42917632     12.21053452     -0.41243463 C 
atom      24.38555423     13.54372700     -0.44268506 C 
atom      24.30170713     14.77616576     -0.47266364 C 
atom      18.94621700      8.41273900     -0.46414554 C 
atom      18.87143373      9.64585928     -0.44297425 C 
atom      18.81818030     10.97881216     -0.42153044 C 
atom      18.81044150     12.21912722     -0.40052761 C 
atom      18.85209408     13.55245306     -0.37943411 C 
atom      18.92323459     14.78582343     -0.36003267 C 
atom      16.73146868      6.18297740     -0.53397686 C 
atom      15.51396695      6.25616802     -0.61480355 C 
atom      14.11573964      6.28293089     -0.66253565 C 
atom      13.36865566      5.21735466     -1.23390078 C 
atom      13.37303721      7.35220238     -0.09420505 C 
atom      11.98994842      7.34289573     -0.04659985 C 
atom      11.28163272      6.23949250     -0.56867942 C 
atom      11.98649662      5.17536772     -1.17399576 C 
atom       9.87686416      6.19877911     -0.49482418 C 
atom       8.65749584      6.15258820     -0.42026810 C 
atom       7.27443407      6.01665125     -0.36811808 C 
atom       6.28788962      7.01856881     -0.38092659 C 
atom       6.44095321      8.39538136     -0.38249863 C 
atom       6.51571550      9.62856119     -0.36803669 C 
atom       6.55972688     10.96201848     -0.35094203 C 
atom       6.55932863     12.20226974     -0.33404515 C 
atom       6.51337778     13.53533342     -0.31448725 C 
atom       6.44025080     14.76863247     -0.29426748 C 
atom       5.00525798      6.31452223     -0.37952240 C 
atom       6.56699832      4.74336334     -0.32993568 C 
atom       3.75598672      6.94369858     -0.38784308 C 
atom       2.50750998      6.31299596     -0.36198121 C 
atom       1.22486128      7.01710488     -0.33560505 C 
atom       1.06486542      8.39215549     -0.35686779 C 
atom       1.00492555      9.62622590     -0.36576812 C 
atom       0.97222543     10.95937985     -0.38484782 C 
atom       0.97380750     12.19962412     -0.39744990 C 
atom       1.01672972     13.53255314     -0.40690773 C 
atom       1.06151464     14.76719095     -0.42376316 C 
atom       0.24038654      6.01527847     -0.28244351 C 
atom       0.95036505      4.74210438     -0.30310945 C 
atom       0.32504653      3.48925056     -0.32313484 C 
atom       0.94618831      2.23492308     -0.36987718 C 
atom       0.23861993      0.96333661     -0.42760909 C 
atom       1.22498212     -0.03953772     -0.41773427 C 
atom       2.50776039      0.66219932     -0.38488994 C 
atom       3.75824257      0.03521635     -0.37067494 C 
atom       5.00548060      0.66785397     -0.32619111 C 
atom       6.56274132      2.23755731     -0.25198858 C 
atom       6.28820236     -0.03718619     -0.27681642 C 
atom       7.27190103      0.96398652     -0.21428559 C 
atom       7.18932658      3.49037747     -0.26636750 C 
atom       8.65306386      0.83071351     -0.12848408 C 
atom       9.87162037      0.77974775     -0.04232331 C 
atom      11.27704678      0.75538953      0.02447608 C 
atom      11.97589929      1.81407188      0.64632822 C 
atom      13.35964848      1.79307333      0.68035421 C 
atom      14.11299259      0.75482138      0.06985753 C 
atom      13.37741342     -0.31170557     -0.51362003 C 
atom      11.99383958     -0.32278646     -0.53709685 C 
atom      15.50989886      0.80077958     -0.00166662 C 
atom      16.72309986      0.84854039     -0.14329634 C 
atom       3.07639321      2.56598804      2.73417333 C 
atom       4.38903913      4.45407265      2.72998334 C 
atom       3.03809282      2.53599348      4.12436312 C 
atom       4.41645482      4.49786766      4.11998221 C 
atom      22.31578259      4.42866999      2.67144316 C 
atom      20.99406050      2.54813986      2.66760395 C 
atom      22.35445529      4.45838718      4.06147521 C 
atom      20.96664757      2.50401388      4.05740272 C 
atom       3.72769591      3.51843264      4.85038902 C 
atom      21.66053991      3.47951304      4.78798596 C 
atom      21.65518090      3.48108425      6.26326191 C 
atom      20.48026217      3.21976555      6.98426137 C 
atom      22.82070406      3.74754633      6.99709478 C 
atom      20.51816078      3.24028497      8.37471425 C 
atom      22.76333264      3.74018998      8.38703269 C 
atom       3.73562138      3.51460690      6.32585745 C 
atom       4.91068660      3.77065003      7.04805967 C 
atom       2.56935333      3.24868648      7.05882038 C 
atom       4.87207744      3.74286258      8.43886049 C 
atom       2.62580661      3.25055387      8.44861002 C 
atom      31.79207892      2.65465645     -1.70332869 H 
atom      31.78709663     -1.17908450      0.31597909 H 
atom      17.09207823      3.51736757     -0.32274423 H 
atom      21.61335621     -1.03852588     -0.45543129 H 
atom      21.63299063      8.04502881     -0.45492510 H 
atom      31.79494961      8.18245827     -1.01682394 H 
atom      31.78960758      4.34330199      0.99131773 H 
atom      26.15077552      3.49067520     -0.34348544 H 
atom      11.45173514      8.16403167      0.41805866 H 
atom      11.44742122      4.33179830     -1.60063386 H 
atom       3.75704672      8.03435689     -0.40439996 H 
atom      -0.76573600      3.49156457     -0.31614494 H 
atom       3.76193299     -1.05559401     -0.38561247 H 
atom       8.27960274      3.49065802     -0.23625106 H 
atom      11.43103047      2.63753172      1.10380554 H 
atom      11.46114343     -1.14339879     -1.01224507 H 
atom       2.56181137      1.80468885      2.14589398 H 
atom       4.90900274      5.20934614      2.13911096 H 
atom       2.50012081      1.73642361      4.63438388 H 
atom       4.94825331      5.30341032      4.62691980 H 
atom      22.83605953      5.18785808      2.08599962 H 
atom      20.47053827      1.79424832      2.07839341 H 
atom      22.89627691      5.25595373      4.57045275 H 
atom      20.42904537      1.70101969      4.56219928 H 
atom      19.53799927      3.02988105      6.46993672 H 
atom      23.77019067      3.93376919      6.49462440 H 
atom      19.61575175      3.04937921      8.95765869 H 
atom      23.65787216      3.93775927      8.97956837 H 
atom       5.85311972      3.96188231      6.53445298 H 
atom       1.62004996      3.06735527      6.55424229 H 
atom       5.77470507      3.92903987      9.02293831 H 
atom       1.72955799      3.05525354      9.03910158 H 
atom      23.08356261      2.02452366     -0.42115609 N 
atom      20.15045115      2.02973107     -0.40284086 N 
atom      20.16094910      4.98179157     -0.41803571 N 
atom      23.09220554      4.97620591     -0.41046783 N 
atom       5.22039873      4.96741771     -0.34744113 N 
atom       2.29340595      4.96767532     -0.34338973 N 
atom       2.29159731      2.00909250     -0.35435929 N 
atom       5.21985125      2.01353354     -0.31256464 N 
atom       3.73763984      3.50513915      2.03816747 N 
atom      21.64947571      3.49357587      1.97437602 N 
atom      21.63591421      3.49409103      9.07341732 N 
atom       3.75367155      3.48916453      9.13690103 N 
atom      21.62281471      3.50303883     -0.40734809 Zn 
atom       3.75544236      3.48912418     -0.33258283 Zn 
atom      14.23191087      8.69937913      0.58497810 Cl 
atom      14.19922027      3.07171520      1.50431580 Cl 
atom      14.21181649      3.93424345     -2.04695443 Cl 
atom      14.24280179     -1.62835195     -1.24636422 Cl 
atom      29.02119378      8.70768223     -1.22027951 Cl 
atom      29.01476667      3.94381818      1.40997936 Cl 
atom      29.01876171      3.06657528     -2.11581571 Cl 
atom      29.00526123     -1.70057196      0.51010784 Cl 
