lattice_vector     35.50651435     -0.00000000     -0.00000000 
lattice_vector     -0.00000000     16.17138440      0.00000000 
lattice_vector     -0.00000000      0.00000000     11.81069076 
atom       1.46863851      3.08971928      9.35288439 H 
atom       1.37155163      3.09063754      6.86875578 H 
atom       4.82669927      5.18553315      4.95156819 H 
atom       4.77173681      5.10633560      2.46598164 H 
atom       2.21890067      1.85192595      2.46652087 H 
atom       2.17122796      1.76793180      4.95207900 H 
atom       5.53913319      3.84585921      9.35125734 H 
atom       5.63190408      3.85650094      6.86676527 H 
atom      20.02371510      1.81092285      2.46018444 H 
atom      22.48658921      5.13350965      2.46155789 H 
atom      22.53818024      5.21326763      4.94799494 H 
atom      19.97153124      1.72906437      4.94628045 H 
atom      23.37623683      3.89728305      6.86130536 H 
atom      23.27931375      3.89445743      9.34764737 H 
atom      19.22771165      3.04851154      9.34661554 H 
atom      19.13326812      3.04299644      6.85988629 H 
atom      13.48366774      4.26140725     -0.94172022 H 
atom      13.48938719      8.33704908      0.52077924 H 
atom      13.48015372      2.66480545      1.12391938 H 
atom      13.48417470     -1.39216453     -0.38879652 H 
atom      29.01626956      4.28806449      1.07590887 H 
atom      29.03324889      8.33766862     -0.45812120 H 
atom      29.01633481     -1.37176459      0.60657469 H 
atom      29.02433239      2.65444751     -0.98974350 H 
atom      -1.04442718      3.46811356      0.06912259 H 
atom       3.50627474     -1.05698036     -0.07438056 H 
atom       3.49429960      7.99868519     -0.08327929 H 
atom       8.04565408      3.47344433      0.08059562 H 
atom      16.71859244      3.48134107      0.07038446 H 
atom      21.24794316     -1.06099183     -0.07630265 H 
atom      21.25898612      8.00599565     -0.09057778 H 
atom      25.78647481      3.46303332      0.07363678 H 
atom       3.49757976      6.90812913     -0.06415300 C 
atom       2.24742085      6.27925709     -0.03783357 C 
atom       0.67754135      4.71912783      0.03763419 C 
atom       3.49959440      3.47623546      5.17189459 C 
atom       2.75200724      2.53843315      4.44457235 C 
atom       2.78358675      2.57620023      3.05481287 C 
atom       4.20885240      4.38075326      3.05446493 C 
atom       4.24448460      4.41594875      4.44434116 C 
atom       3.50154213      3.47386693      6.64850632 C 
atom       4.63406782      3.68203479      8.76466346 C 
atom       4.68054213      3.69797673      7.37479309 C 
atom       2.32380746      3.24664737      7.37597626 C 
atom       2.37269709      3.25619539      8.76558162 C 
atom      20.56709809      2.55059319      3.04937001 C 
atom      21.94346088      4.39291986      3.05004448 C 
atom      21.97674798      4.42901436      4.43976207 C 
atom      21.25487930      3.47109264      5.16650775 C 
atom      20.53333702      2.51361741      4.43903464 C 
atom      21.25462262      3.47068526      6.64277231 C 
atom      22.42795686      3.72113785      7.36956442 C 
atom      22.37946978      3.70879989      8.75933699 C 
atom      20.08081668      3.22022889      7.36898332 C 
atom      20.12797808      3.23383170      8.75876985 C 
atom       0.96912567      6.99150341     -0.01329468 C 
atom      -0.02404476      5.99824404      0.04787897 C 
atom       0.04652419      3.46766219      0.04345859 C 
atom       0.67498301      2.21566386      0.00170348 C 
atom       0.97292367     -0.05698421     -0.04110067 C 
atom       2.25068611      0.65537805     -0.04752810 C 
atom       3.50419981      0.03366452     -0.05627858 C 
atom       4.75468949      0.66186994     -0.02439029 C 
atom       4.75092627      6.28586384     -0.05049896 C 
atom       6.02783594      6.99856444     -0.04455988 C 
atom       6.32683614      4.72634493      0.00456005 C 
atom      13.73492641      6.27710090     -0.15070281 C 
atom      12.97551100      5.16202300     -0.58360575 C 
atom      11.03757114      6.28379506     -0.16026324 C 
atom      12.98061463      7.41820707      0.21701672 C 
atom       8.40580289      6.16638106     -0.05281653 C 
atom       9.62389391      6.24758584     -0.10415860 C 
atom      11.03271455      0.65638771      0.31081469 C 
atom       9.62127811      0.70070533      0.22585607 C 
atom      12.97169919      1.77014458      0.75168726 C 
atom      13.73001378      0.66448370      0.29313301 C 
atom      12.97513481     -0.47578099     -0.07707589 C 
atom       8.40494194      0.78679220      0.14454339 C 
atom      15.13404045      6.23568864     -0.09924204 C 
atom      16.35509920      6.16058924     -0.05523064 C 
atom      15.12733060      0.71382352      0.21043183 C 
atom      16.34627723      0.79643123      0.13214108 C 
atom      26.15942608      6.15194529      0.10665499 C 
atom      27.37857366      6.24449993      0.16770543 C 
atom      31.47381810      6.28575269      0.26650430 C 
atom      29.52960645      5.18020841      0.70431551 C 
atom      28.77659523      6.28880043      0.24409140 C 
atom      29.53669927      7.42215191     -0.13544317 C 
atom      32.88641267      6.23947720      0.19862675 C 
atom      26.15127771      0.78712179     -0.04960723 C 
atom      27.37223610      0.70672653     -0.08363480 C 
atom      31.46862787      0.65635537     -0.14331553 C 
atom      29.52524395     -0.46431730      0.26914120 C 
atom      28.77130803      0.66364292     -0.13752967 C 
atom      29.53129179      1.76473413     -0.60379049 C 
atom      32.88307858      0.69399814     -0.08924575 C 
atom      34.10337758      6.15915393      0.12081403 C 
atom      34.10128517      0.77620850     -0.04391336 C 
atom       7.02449761      6.00549964     -0.02186508 C 
atom       6.95479038      3.47445132      0.05292356 C 
atom       6.32331963      2.22315539      0.05160702 C 
atom       7.02544124      0.94489498      0.06964246 C 
atom       6.03373260     -0.04966836      0.00786216 C 
atom       0.82080902      8.36730062     -0.03944692 C 
atom       0.76586819      9.60110491     -0.05274869 C 
atom       0.73123909     10.93245750     -0.06347020 C 
atom       0.73374178     12.17231912     -0.06475242 C 
atom       0.77190089     13.50382862     -0.05952823 C 
atom       0.82609912     14.73763498     -0.05084974 C 
atom       6.17453727      8.37518260     -0.05576794 C 
atom       6.23246838      9.60886417     -0.05860328 C 
atom       6.27053524     10.94035684     -0.05852641 C 
atom       6.27231533     12.18022523     -0.05001713 C 
atom       6.23600274     13.51166966     -0.03320681 C 
atom       6.18198988     14.74545869     -0.01420110 C 
atom      -0.02339101      0.93611536     -0.01998020 C 
atom      21.25895972      6.91558329     -0.06850479 C 
atom      20.00886368      6.28826397     -0.03958886 C 
atom      18.44002261      4.72808056      0.00617701 C 
atom      18.73079178      6.99930583     -0.03533140 C 
atom      17.73640349      6.00566719     -0.01862716 C 
atom      17.81019254      3.47783969      0.04470231 C 
atom      18.43197969      2.22322191      0.03651693 C 
atom      18.71685241     -0.04985707     -0.01029476 C 
atom      19.99701065      0.65560811     -0.04340962 C 
atom      21.24765213      0.02951083     -0.05778198 C 
atom      22.49848027      0.65604243     -0.03460335 C 
atom      22.50927603      6.28837330     -0.05344651 C 
atom      23.78892998      6.99423640     -0.02763224 C 
atom      24.07497541      4.72206119      0.03076541 C 
atom      24.77957204      5.99723581      0.03724202 C 
atom      24.69640819      3.46773921      0.04577172 C 
atom      24.06650372      2.21692865      0.00975971 C 
atom      24.77009135      0.94050192     -0.01476365 C 
atom      23.77742527     -0.05447255     -0.03212064 C 
atom      18.57910126      8.37515100     -0.04857053 C 
atom      18.51560682      9.60866947     -0.05388378 C 
atom      18.47354809     10.94017149     -0.05704634 C 
atom      18.46927621     12.18007887     -0.05306953 C 
atom      18.50513476     13.51190675     -0.04196093 C 
atom      18.56159605     14.74569544     -0.02754791 C 
atom      23.94256677      8.37016393     -0.04608350 C 
atom      24.00271722      9.60380004     -0.05502622 C 
atom      24.04016143     10.93563227     -0.06140828 C 
atom      24.03613860     12.17555936     -0.05991097 C 
atom      23.99206810     13.50715679     -0.05263667 C 
atom      23.92934422     14.74071600     -0.04310714 C 
atom      17.72649634      0.94794792      0.05363371 C 
atom       2.02350218      4.93644890     -0.01284672 N 
atom       2.02370581      1.99954858     -0.01729371 N 
atom       4.97769378      2.00487216     -0.00224776 N 
atom       4.97751674      4.94184550     -0.01652618 N 
atom      19.78628416      4.94468787     -0.01108901 N 
atom      19.77819981      2.00162288     -0.01819910 N 
atom      11.65154652      5.15157515     -0.58994950 N 
atom      11.65414081      7.43172817      0.21625423 N 
atom      11.64761848      1.77971357      0.76212083 N 
atom      11.64921302     -0.49011008     -0.07255813 N 
atom      30.85348398      5.16521674      0.71725302 N 
atom      30.86310160      7.43103172     -0.12780242 N 
atom      30.85199200     -0.47815834      0.26974110 N 
atom       3.50402715      3.46756817      9.45707712 N 
atom       3.49546318      3.47892860      2.36051179 N 
atom      21.25529564      3.47190067      2.35618986 N 
atom      21.25336064      3.47193610      9.45067748 N 
atom      30.85540497      1.77467707     -0.60826194 N 
atom      22.72053295      1.99942642     -0.00750066 N 
atom      22.72795733      4.94281018     -0.02145830 N 
atom       3.50055684      3.47040099     -0.01240061 Zn 
atom      21.25326946      3.47217803     -0.01409390 Zn 
