lattice_vector     71.39516636     -0.00000000     -0.00000000 
lattice_vector     -0.00000000     16.09831740      0.00000000 
lattice_vector     -0.00000000      0.00000000     11.87624799 
atom      24.84968161      0.93862848     -0.72916209 C 
atom      24.16686061      2.21242211     -0.70942557 C 
atom      22.61164200      0.66939764     -0.73287713 C 
atom      23.87986458     -0.02433166     -0.74396397 C 
atom      21.33750573      0.02887176     -0.73272611 C 
atom      20.06389707      0.66934125     -0.70210319 C 
atom      18.79389937     -0.01635159     -0.66229014 C 
atom      17.82705466      0.95155474     -0.60898132 C 
atom      18.51525159      2.22084739     -0.61783640 C 
atom      17.87899565      3.49618880     -0.57944704 C 
atom      18.52649904      4.76528364     -0.60202335 C 
atom      20.07898258      6.30844850     -0.67366861 C 
atom      18.81078630      7.00131490     -0.62249609 C 
atom      17.84171009      6.03873277     -0.57595152 C 
atom      21.35122532      6.94887345     -0.72113445 C 
atom      22.62655816      6.30842241     -0.73641263 C 
atom      23.89608353      6.99459029     -0.75308867 C 
atom      24.17855963      4.75648531     -0.70370464 C 
atom      24.86392598      6.02611400     -0.73050414 C 
atom      24.81614274      3.48102782     -0.69537447 C 
atom       7.00762859      6.05190980     -0.72718729 C 
atom       6.03794990      7.01729771     -0.77494547 C 
atom       4.77007571      6.32797451     -0.77588903 C 
atom       6.32556811      4.78042935     -0.70577237 C 
atom       3.49455818      6.96733554     -0.77747583 C 
atom       2.22261981      6.32583581     -0.72763368 C 
atom       0.95385583      7.01668913     -0.67186854 C 
atom      -0.01187869      6.05112280     -0.61253230 C 
atom       0.67380893      4.77869940     -0.63767234 C 
atom       0.03223666      3.50701444     -0.60007220 C 
atom       0.67486627      2.23527147     -0.65528872 C 
atom      -0.00830461      0.96401434     -0.65996339 C 
atom       0.95970791     -0.00191630     -0.72796220 C 
atom       2.22731216      0.68680435     -0.75991496 C 
atom       3.50220045      0.04753937     -0.79005698 C 
atom       4.77432551      0.68962682     -0.76710486 C 
atom       6.32384813      2.23690173     -0.70349854 C 
atom       6.04451979     -0.00060811     -0.75488204 C 
atom       7.01089688      0.96501621     -0.71236246 C 
atom       6.96801756      3.50780366     -0.67630495 C 
atom       2.94463088      2.50985841      2.35695847 C 
atom       4.06701245      4.51601131      2.35536744 C 
atom       2.90618668      2.47611557      3.74741346 C 
atom       4.08442537      4.56410607      3.74602210 C 
atom      21.95019451      4.47503727      2.38760239 C 
atom      20.78243117      2.49507422      2.39624239 C 
atom      21.96886651      4.52761779      3.77796340 C 
atom      20.74391490      2.46715388      3.78669706 C 
atom       3.48993946      3.52352110      4.47574201 C 
atom      21.35058641      3.50385496      4.51148285 C 
atom      21.34395387      3.51109004      5.98811304 C 
atom      20.20695945      3.12195252      6.71308032 C 
atom      22.47522533      3.89901023      6.72111336 C 
atom      20.24844188      3.13589167      8.10396348 C 
atom      22.42448332      3.87575439      8.11127442 C 
atom       3.48450173      3.52584012      5.95242877 C 
atom       4.61095360      3.93364446      6.68269855 C 
atom       2.35647162      3.11666362      6.68007923 C 
atom       4.56515423      3.90973658      8.07306013 C 
atom       2.40172348      3.13274695      8.07100549 C 
atom      21.35250968      8.35259795     -0.73280961 C 
atom      21.35355210      9.58481610     -0.74294314 C 
atom      21.34950249     10.91908282     -0.75261580 C 
atom      21.35156497     12.15709021     -0.75309188 C 
atom      21.34430225     13.49133749     -0.74559101 C 
atom      21.33828768     14.72355520     -0.73929660 C 
atom       3.49841275      8.37087391     -0.80205831 C 
atom       3.49605418      9.60309858     -0.81351422 C 
atom       3.50161643     10.93742216     -0.82383161 C 
atom       3.49870356     12.17545076     -0.82130685 C 
atom       3.50049389     13.50986457     -0.81627391 C 
atom       3.50150916     14.74214005     -0.81176628 C 
atom       8.37490682      3.50647849     -0.63560525 C 
atom       9.59727297      3.50409208     -0.60334397 C 
atom      11.00245010      3.49896850     -0.56664169 C 
atom      11.71750867      4.72035350     -0.58061294 C 
atom      11.71369899      2.27618966     -0.52243206 C 
atom      13.09549504      4.69259750     -0.55556819 C 
atom      13.09222481      2.30194356     -0.49913652 C 
atom      13.85163175      3.49640973     -0.51767550 C 
atom      15.25059012      3.49785328     -0.51474685 C 
atom      16.47269762      3.50236027     -0.53624950 C 
atom      26.22371947      3.47426419     -0.69081421 C 
atom      27.44645770      3.46401737     -0.69481286 C 
atom      28.85220107      3.45676987     -0.69822832 C 
atom      29.56940299      4.67675834     -0.71353788 C 
atom      29.56143973      2.23202584     -0.68826388 C 
atom      30.94765611      4.64551899     -0.71746240 C 
atom      30.94025869      2.25427810     -0.69266535 C 
atom      31.70178466      3.44737727     -0.70699735 C 
atom      33.10099186      3.44654567     -0.71273434 C 
atom      34.32330289      3.44594091     -0.71781610 C 
atom      60.56582490      0.97322512     -0.49539582 C 
atom      59.87788535      2.24452843     -0.54088036 C 
atom      58.33062169      0.69686842     -0.62128574 C 
atom      59.59994139      0.00763119     -0.54801045 C 
atom      57.06033157      0.05411962     -0.67997994 C 
atom      55.78465859      0.69345410     -0.70459882 C 
atom      54.51695791      0.00471842     -0.73252710 C 
atom      53.54694113      0.97075095     -0.71155908 C 
atom      54.22913550      2.24208357     -0.67513977 C 
atom      53.58527055      3.51498423     -0.66222692 C 
atom      54.22899033      4.78632035     -0.68702921 C 
atom      55.78139515      6.33238409     -0.73850110 C 
atom      54.51175384      7.02342027     -0.74613449 C 
atom      53.54372709      6.05867987     -0.71178382 C 
atom      57.05548922      6.97341969     -0.74766569 C 
atom      58.33034669      6.33436843     -0.70885737 C 
atom      59.59835337      7.02372730     -0.66277272 C 
atom      59.88247099      4.78823121     -0.58542063 C 
atom      60.56686378      6.05940985     -0.58295344 C 
atom      60.52149417      3.51546239     -0.51863349 C 
atom      42.70772745      6.00566696     -0.68327984 C 
atom      41.73643637      6.96910910     -0.74074795 C 
atom      40.46926812      6.27790106     -0.76914047 C 
atom      42.02547335      4.73335246     -0.67935612 C 
atom      39.19151065      6.91225016     -0.79646673 C 
atom      37.92037427      6.26593688     -0.78651757 C 
atom      36.64851211      6.95385779     -0.79398823 C 
atom      35.68222891      5.98795624     -0.76575512 C 
atom      36.37240671      4.71722035     -0.74377548 C 
atom      35.73045424      3.44519998     -0.72462406 C 
atom      36.37287687      2.17239426     -0.73327812 C 
atom      35.69187995      0.90026784     -0.76247115 C 
atom      36.66338734     -0.06326507     -0.78078999 C 
atom      37.93106555      0.62753385     -0.75979061 C 
atom      39.20918252     -0.00706608     -0.74203108 C 
atom      40.47957277      0.63882905     -0.69932346 C 
atom      42.02696785      2.18864219     -0.64794888 C 
atom      41.75097019     -0.04868511     -0.65123096 C 
atom      42.71677921      0.91807076     -0.61868723 C 
atom      42.66854473      3.46121521     -0.63712039 C 
atom      38.61743884      2.47102095      2.35187014 C 
atom      39.75058509      4.47116861      2.35002886 C 
atom      38.59436020      2.42855882      3.74238068 C 
atom      39.78298669      4.51061224      3.74053867 C 
atom      57.59572933      4.55608723      2.41093242 C 
atom      56.42197693      2.57980254      2.41847351 C 
atom      57.61933097      4.60551510      3.80156965 C 
atom      56.38751989      2.54920052      3.80895791 C 
atom      39.19130053      3.46867486      4.47080975 C 
atom      57.00450345      3.57943051      4.53457237 C 
atom      57.01485794      3.57042063      6.01131542 C 
atom      55.88750764      3.17452399      6.74679642 C 
atom      58.15884916      3.94242366      6.73367350 C 
atom      55.95218565      3.16276791      8.13634133 C 
atom      58.13122896      3.89391937      8.12431814 C 
atom      39.19622334      3.46601636      5.94645250 C 
atom      40.32553250      3.86558248      6.67719874 C 
atom      38.06929746      3.05491032      6.67539493 C 
atom      40.28288644      3.83142169      8.06774307 C 
atom      38.11804153      3.05946038      8.06554816 C 
atom      57.06101277      8.37737093     -0.76029245 C 
atom      57.05849953      9.60970510     -0.75373115 C 
atom      57.06014241     10.94416203     -0.74734716 C 
atom      57.06064930     12.18217089     -0.73150162 C 
atom      57.05706676     13.51651729     -0.71164320 C 
atom      57.05902579     14.74872903     -0.69231614 C 
atom      39.18297024      8.31615550     -0.80732950 C 
atom      39.18800702      9.54849905     -0.80192989 C 
atom      39.19289584     10.88287325     -0.79584756 C 
atom      39.19667544     12.12095639     -0.78596399 C 
atom      39.20917491     13.45515301     -0.76572161 C 
atom      39.21202505     14.68743204     -0.75117459 C 
atom      44.07567482      3.46443224     -0.60021007 C 
atom      45.29817042      3.45909664     -0.59191584 C 
atom      46.69763150      3.46829505     -0.58656459 C 
atom      47.44731734      4.66875095     -0.62365981 C 
atom      47.46492765      2.27897923     -0.55577472 C 
atom      48.82572540      4.70588139     -0.63396247 C 
atom      48.84378980      2.26265904     -0.56424049 C 
atom      49.54864370      3.48954557     -0.60593396 C 
atom      50.95464294      3.49865098     -0.62544404 C 
atom      52.17743351      3.50718728     -0.64441123 C 
atom      61.92632228      3.51471616     -0.43930870 C 
atom      63.14804900      3.52132070     -0.40036246 C 
atom      64.54677265      3.51167357     -0.37157283 C 
atom      65.31081187      4.70226762     -0.41646202 C 
atom      65.29832770      2.31268734     -0.32659830 C 
atom      66.68896887      4.72112135     -0.43369581 C 
atom      66.67691728      2.27797055     -0.34186585 C 
atom      67.39610105      3.49538838     -0.40363395 C 
atom      68.80132065      3.49385553     -0.44871329 C 
atom      70.02236943      3.50260098     -0.51520959 C 
atom      22.81448308      2.01903349     -0.71379713 N 
atom      19.86702015      2.02201135     -0.67705309 N 
atom      19.87724330      4.95785961     -0.66057088 N 
atom      22.82533302      4.95660842     -0.70779903 N 
atom       4.97211597      4.97661154     -0.73683367 N 
atom       2.02362981      4.97547542     -0.70793144 N 
atom       2.02700522      2.03898267     -0.71968639 N 
atom       4.97271552      2.03996595     -0.73765446 N 
atom       3.51089400      3.50955689      1.66219638 N 
atom      21.37075950      3.47942650      1.69803211 N 
atom      21.33507818      3.50249384      8.80141784 N 
atom       3.48389158      3.51839075      8.76560300 N 
atom      58.52845943      2.04819672     -0.61712727 N 
atom      55.58279439      2.04496351     -0.67339896 N 
atom      55.58097077      4.98254579     -0.70464914 N 
atom      58.53101518      4.98279270     -0.66612209 N 
atom      40.67230491      4.92631907     -0.73357114 N 
atom      37.72360711      4.91545246     -0.75714733 N 
atom      37.72690407      1.97893558     -0.73353342 N 
atom      40.67607883      1.99005182     -0.69615334 N 
atom      39.18193323      3.47166969      1.65711051 N 
atom      57.01467730      3.56176420      1.72075140 N 
atom      57.05167287      3.51089008      8.82380888 N 
atom      39.20291809      3.43677965      8.76063916 N 
atom       2.50652519      1.70238065      1.76791945 H 
atom       4.51625819      5.31609325      1.76442580 H 
atom       2.45070369      1.62620468      4.25631528 H 
atom       4.53410047      5.41846647      4.25267795 H 
atom      22.41718222      5.26234277      1.79337653 H 
atom      20.32535978      1.69585266      1.81046328 H 
atom      22.43772415      5.37357686      4.28121202 H 
atom      20.26964045      1.62926399      4.29830047 H 
atom      19.28839179      2.83397492      6.20128537 H 
atom      23.39750735      4.18904221      6.21719191 H 
atom      19.37655725      2.84150829      8.69100366 H 
atom      23.29325811      4.16741602      8.70338334 H 
atom       5.52595502      4.24053189      6.17577471 H 
atom       1.44153666      2.81256399      6.17112273 H 
atom       5.43008694      4.21591487      8.66377297 H 
atom       1.53633402      2.82435405      8.66043677 H 
atom      24.02883145      8.07175539     -0.77634761 H 
atom      18.68360279      8.07958683     -0.62052040 H 
atom      18.66084123     -1.09405862     -0.66978970 H 
atom      24.00714438     -1.10249683     -0.75913394 H 
atom       6.16833814      8.09489154     -0.80251205 H 
atom       0.82378536      8.09475425     -0.67225077 H 
atom       0.82872785     -1.07981651     -0.74756516 H 
atom       6.17441726     -1.07845583     -0.77265962 H 
atom      11.19412807      5.67358207     -0.61514014 H 
atom      11.18828193      1.32346350     -0.51012640 H 
atom      16.74943121      0.82096540     -0.56958639 H 
atom       8.08830163      0.83326856     -0.69240660 H 
atom       8.08465737      6.18660179     -0.71078132 H 
atom      16.76496831      6.17254500     -0.52940760 H 
atom      29.04752618      5.63139492     -0.72267702 H 
atom      29.03393867      1.28042687     -0.67770302 H 
atom      25.92681281      0.80387580     -0.73360423 H 
atom      25.94149812      6.15795430     -0.73416288 H 
atom      -1.08790160      6.18428022     -0.55997454 H 
atom      -1.08520503      0.83104486     -0.62321169 H 
atom      38.16719357      1.67065759      1.76230258 H 
atom      40.19685406      5.27289693      1.75923548 H 
atom      38.13964209      1.57776952      4.25045273 H 
atom      40.24116082      5.36022719      4.24743570 H 
atom      58.06257778      5.34421542      1.81771781 H 
atom      55.96056473      1.78379031      1.83148701 H 
atom      58.09218065      5.44924840      4.30489091 H 
atom      55.91136683      1.71231214      4.32049980 H 
atom      54.95917793      2.89946909      6.24557590 H 
atom      59.07363772      4.23797811      6.21944096 H 
atom      55.08810485      2.86089518      8.73031163 H 
atom      59.01005433      4.17086195      8.70950985 H 
atom      41.24048757      4.17336955      6.17039459 H 
atom      37.15217327      2.75762285      6.16620327 H 
atom      41.14989479      4.13198351      8.65851716 H 
atom      37.25287678      2.74842723      8.65341523 H 
atom      59.72894270      8.10151189     -0.68290591 H 
atom      54.38215283      8.10109458     -0.77263510 H 
atom      54.38672969     -1.07296005     -0.76104537 H 
atom      59.72970119     -1.07032783     -0.53472983 H 
atom      41.86513343      8.04723354     -0.75889413 H 
atom      36.51652168      8.03138958     -0.81742000 H 
atom      36.53450359     -1.14119377     -0.80372456 H 
atom      41.88253861     -1.12646725     -0.64171414 H 
atom      52.46976223      0.83641404     -0.72559002 H 
atom      43.79457140      0.78857963     -0.58141934 H 
atom      43.78481618      6.14132958     -0.64772012 H 
atom      52.46642837      6.19183842     -0.70527172 H 
atom      61.64250976      0.84308957     -0.43508300 H 
atom      61.64329077      6.19370124     -0.52831366 H 
atom      34.60403776      6.11774705     -0.76131963 H 
atom      34.61349971      0.76509343     -0.77323892 H 
atom      49.34267199      5.66269601     -0.66652546 H 
atom      49.37473718      1.31315872     -0.54131649 H 
atom      67.21910337      5.67011199     -0.47906261 H 
atom      67.19562655      1.32189833     -0.31347736 H 
atom      13.77472010      5.85963959     -0.57355272 F 
atom      13.76861715      1.13328541     -0.46095052 F 
atom      31.62914183      5.81122549     -0.73332062 F 
atom      31.61435020      1.08389708     -0.68415414 F 
atom      46.76112784      5.83171797     -0.65453224 F 
atom      46.79632833      1.10619986     -0.51925121 F 
atom      64.63870718      5.87327360     -0.45492198 F 
atom      64.61419662      1.14951325     -0.27572201 F 
atom      21.34725583      3.49024001     -0.69419841 Zn 
atom       3.50019738      3.50887859     -0.73260620 Zn 
atom      57.05459966      3.51596682     -0.67404096 Zn 
atom      39.19964438      3.45265603     -0.73384369 Zn 
