lattice_vector 35.51913918 0.000000000 0.00000000  
lattice_vector 0.000000000 16.15982511 0.00000000  
lattice_vector 0.000000000 0.000000000 7.62405289  
atom 13.48713116 1.57149993 -1.02012505 H 
atom 13.48435111 5.62756414 0.49729083 H 
atom 29.02620479 1.58308100 1.00570022 H 
atom 29.03979904 5.62854438 -0.53992589 H 
atom 5.16966838 2.24625942 2.65171934 H 
atom 3.62535043 1.37244541 2.64604071 H 
atom 5.16531162 2.24133215 4.9921733 H 
atom 3.61856664 1.3722367 4.99064891 H 
atom 1.57015445 4.36066036 2.64392595 H 
atom 1.57066892 4.36389104 4.99087642 H 
atom 1.5554727 2.59023591 4.99220081 H 
atom 3.65171612 5.54730385 2.64830737 H 
atom 5.18504744 4.65471573 2.64833482 H 
atom 3.6560751 5.54702652 4.99271618 H 
atom 5.18682663 4.64972518 4.98895018 H 
atom -1.04069078 0.94000000 -0.0007512 H 
atom 0.97000000 -1.0696276 0.01189285 H 
atom 0.91011264 8.09364263 0.00353066 H 
atom 8.03998024 0.94218753 0.01730304 H 
atom 1.5585405 2.58698739 2.64510228 H 
atom 22.99993682 2.33914808 2.64368088 H 
atom 21.49513 1.39970648 2.65167134 H 
atom 23.00923314 2.35852289 4.98652058 H 
atom 21.51548985 1.40163639 4.99682576 H 
atom 19.31328803 4.29462545 2.64805818 H 
atom 19.30145013 4.27506738 4.99610319 H 
atom 19.38667311 2.50326657 4.98732756 H 
atom 21.3409114 5.57216342 2.64092651 H 
atom 22.90967262 4.7438361 2.65504634 H 
atom 21.31476528 5.57149506 4.98686402 H 
atom 22.8941052 4.76405781 4.99706227 H 
atom 16.72854659 0.95877989 0.00666076 H 
atom 18.72711772 -1.05689462 0.0148137 H 
atom 18.66931699 8.11659731 -0.00111262 H 
atom 25.78789645 0.95875000 0.0052655 H 
atom 19.37758983 2.52107322 2.63943002 H 
atom -1.04069078 5.99000000 -0.0007512 H 
atom 8.03998024 5.99218753 0.01730304 H 
atom 16.72854659 6.00877989 0.00666076 H 
atom 25.78789645 6.00875000 0.0052655 H 
atom 6.020000000 8.09364263 0.00353066 H 
atom 23.77920435 8.11659731 -0.00111262 H 
atom 6.03496684 -1.0696276 0.01189285 H 
atom 23.79208456 -1.05689462 0.0148137 H 
atom 4.14466544 2.25419774 3.04356098 C 
atom 4.14195863 2.25300273 4.59615103 C 
atom 2.07491141 3.47077436 3.04128202 C 
atom 2.07408164 3.47236759 4.59545237 C 
atom 4.16119363 4.65860128 3.04322913 C 
atom 4.16229485 4.65740646 4.59579267 C 
atom 3.5005441 6.90289724 0.00468208 C 
atom 2.25010579 6.27432263 0.00366891 C 
atom 0.68010046 4.71070753 0.01658463 C 
atom 0.9703145 6.98172727 0.00752181 C 
atom -0.02282262 5.98672546 0.02733364 C 
atom 0.05052021 3.46122694 0.00182635 C 
atom 0.6805554 2.21190045 -0.01086224 C 
atom 0.97166114 -0.05895454 -0.0029241 C 
atom 2.2512855 0.64900924 0.0068415 C 
atom 3.50220387 0.02111384 0.01025254 C 
atom 4.75187027 0.64979517 0.01328786 C 
atom 4.75035893 6.27470934 0.00608996 C 
atom 6.02937814 6.98269261 -0.00224371 C 
atom 6.3186184 4.71205137 -0.00541972 C 
atom 13.73530274 3.57707398 -0.20248476 C 
atom 12.97779619 2.46635513 -0.6495287 C 
atom 11.03676207 3.57561259 -0.20524647 C 
atom 12.97782023 4.71149029 0.1805717 C 
atom 8.40459161 3.46000000 -0.07346316 C 
atom 9.62279375 3.53528663 -0.13645179 C 
atom 15.13539287 3.53894701 -0.14329876 C 
atom 16.35672074 3.46844934 -0.09081779 C 
atom 26.16211336 3.46699893 0.08107322 C 
atom 27.38325438 3.54816387 0.12086324 C 
atom 31.48194652 3.57973667 0.18960188 C 
atom 29.53817504 2.47525319 0.63252799 C 
atom 28.78358917 3.58479335 0.17767586 C 
atom 29.54375231 4.71460693 -0.21317618 C 
atom 32.89628757 3.53878462 0.13148979 C 
atom 34.11433279 3.46001606 0.07219198 C 
atom 7.02258189 5.98803399 -0.02202537 C 
atom 6.94868617 3.46296404 0.01400796 C 
atom 6.31930676 2.21341622 0.0304172 C 
atom 7.02391804 0.93786643 0.05342814 C 
atom 6.03135727 -0.05741824 0.03003606 C 
atom 3.49925226 8.35873224 0.0022704 C 
atom 3.55825009 9.59190427 0.0071042 C 
atom 3.5983658 10.92280641 0.01293699 C 
atom 3.59955501 12.16221732 0.01890333 C 
atom 3.55974646 13.49319005 0.02493664 C 
atom 3.50201572 14.72643593 0.02878661 C 
atom -0.02183713 0.93561141 -0.02580323 C 
atom 21.97836338 2.30449358 3.04323036 C 
atom 21.98467147 2.30964432 4.59586741 C 
atom 19.85481429 3.42414389 3.04101724 C 
atom 19.85395805 3.41569299 4.59525348 C 
atom 21.88375339 4.70707593 3.04317438 C 
atom 21.87406959 4.71140281 4.59596846 C 
atom 21.25988323 6.92588186 0.00185196 C 
atom 20.01069342 6.2959558 -0.0008023 C 
atom 18.44540921 4.72956969 -0.01418572 C 
atom 18.72975145 7.00023873 -0.01823082 C 
atom 17.7388919 6.00329797 -0.0393343 C 
atom 17.81889025 3.47960389 0.00694127 C 
atom 18.44500198 2.22973086 0.02864334 C 
atom 18.72954755 -0.04075858 0.0342517 C 
atom 20.01059441 0.66362496 0.01574279 C 
atom 21.25995841 0.03379183 0.01279695 C 
atom 22.50877169 0.66341762 0.00787476 C 
atom 22.50844886 6.29619555 0.00648313 C 
atom 23.78892362 7.00019723 0.01694304 C 
atom 24.07131786 4.72991438 0.02241536 C 
atom 24.77957914 6.00310046 0.03778075 C 
atom 24.69728834 3.47960605 0.00614735 C 
atom 24.07175011 2.22925203 -0.00971208 C 
atom 24.78003573 0.95616892 -0.02940511 C 
atom 23.78938824 -0.04082763 -0.00668025 C 
atom 21.26419293 8.37566385 0.01103884 C 
atom 21.32771603 9.60871732 0.00724913 C 
atom 21.36992807 10.93979641 0.00425789 C 
atom 21.3702126 12.17927986 0.00236536 C 
atom 21.32777925 13.51042269 0.00007686 C 
atom 21.26456925 14.74351253 -0.00240559 C 
atom 17.73855287 0.95606536 0.05593885 C 
atom 3.46252802 3.46115776 2.52008047 N 
atom 3.46112409 3.46104935 5.11845248 N 
atom 2.0295191 4.92876486 0.00449221 N 
atom 2.03005106 1.99442519 0.00693435 N 
atom 4.9711022 1.99542805 0.00881988 N 
atom 4.97022139 4.92923131 0.00860758 N 
atom 21.24057712 3.47877313 2.52035374 N 
atom 21.23888336 3.47891313 5.11769579 N 
atom 19.79394022 4.94928794 0.00426942 N 
atom 19.79360317 2.00996096 0.01016744 N 
atom 11.65335655 2.45186011 -0.65216234 N 
atom 11.65148387 4.72108455 0.18266784 N 
atom 30.86251662 2.45904201 0.64002166 N 
atom 30.87015819 4.72249516 -0.21057824 N 
atom 22.72456654 2.00936172 0.00833342 N 
atom 22.72411329 4.94989165 0.00765371 N 
atom 3.49678249 3.46178742 0.00673603 Zn 
atom   21.25824947 3.47957462    0.01112814 Zn 
