lattice_vector     35.67269807      0.00000000     -0.00000000 
lattice_vector     -0.00000000     16.10365688     -0.00000000 
lattice_vector      0.00000000     -0.00000000      7.64808444 
atom      25.08257263      0.98424915      0.06302594 C 
atom      24.39321919      2.25277824      0.05080544 C 
atom      22.84566932      0.70258132      0.04398762 C 
atom      24.11525210      0.01648427      0.05857776 C 
atom      21.57224144      0.05818097      0.03626619 C 
atom      20.29735489      0.70127621      0.03073474 C 
atom      19.02762416      0.01442797      0.02300918 C 
atom      18.05949054      0.98180501      0.02293017 C 
atom      18.74686756      2.25100124      0.02990416 C 
atom      18.10693265      3.52328890      0.03061932 C 
atom      18.74572026      4.79631835      0.03203510 C 
atom      20.29524246      6.34714088      0.03398995 C 
atom      19.02496218      7.03315450      0.03189283 C 
atom      18.05743392      6.06512796      0.03057003 C 
atom      21.56998161      6.99083427      0.03522642 C 
atom      22.84388013      6.34731886      0.03765704 C 
atom      24.11316454      7.03403530      0.04151764 C 
atom      24.39262542      4.79781240      0.04383573 C 
atom      25.08116819      6.06678155      0.04549621 C 
atom      25.03215899      3.52543186      0.05046623 C 
atom       7.24398002      6.04267171      0.03819494 C 
atom       6.27791418      7.01169479      0.04170501 C 
atom       5.00897492      6.32585323      0.04897956 C 
atom       6.55618303      4.77401935      0.04370929 C 
atom       3.73656520      6.97168443      0.05304976 C 
atom       2.46167118      6.32912448      0.05551373 C 
atom       1.19318662      7.01694483      0.06138820 C 
atom       0.22551592      6.04915433      0.06273298 C 
atom       0.91032229      4.77924488      0.05762038 C 
atom       0.26789562      3.50805874      0.05965993 C 
atom       0.90686919      2.23523766      0.05873369 C 
atom       0.21986763      0.96649769      0.06372501 C 
atom       1.18600846     -0.00295141      0.06214514 C 
atom       2.45572063      0.68272078      0.05609128 C 
atom       3.72975582      0.03823875      0.05312575 C 
atom       5.00347957      0.68177331      0.04867315 C 
atom       6.55377827      2.23084875      0.04340815 C 
atom       6.27119116     -0.00628392      0.04109433 C 
atom       7.23908352      0.96096169      0.03761003 C 
atom       7.19638559      3.50181630      0.04157543 C 
atom       4.38762821      4.70146230      3.09817229 C 
atom       4.37177955      2.29582932      3.09789271 C 
atom       2.30169196      3.51219907      3.09872588 C 
atom       2.30301941      3.51198574      4.65415424 C 
atom       4.37297608      2.29590772      4.65131495 C 
atom       4.38878505      4.70101953      4.65155606 C 
atom      22.27114509      2.35456906      3.08558577 C 
atom      20.15014621      3.48017139      3.08246038 C 
atom      20.14881508      3.48065392      4.63780393 C 
atom      22.27049194      2.35494115      4.63885773 C 
atom      22.18121161      4.75861771      4.63824731 C 
atom      22.18215182      4.75797538      3.08461784 C 
atom      21.57009087      8.39086678      0.03449595 C 
atom      21.56960069      9.62493267      0.03388254 C 
atom      21.57204942     10.95636446      0.03289942 C 
atom      21.57376149     12.19624521      0.03473330 C 
atom      21.57386295     13.52768807      0.03506262 C 
atom      21.57334108     14.76174764      0.03491447 C 
atom       3.73823983      8.37137494      0.05418900 C 
atom       3.73659989      9.60553356      0.05565558 C 
atom       3.73667842     10.93680214      0.05858728 C 
atom       3.73363391     12.17676502      0.05836885 C 
atom       3.73260958     13.50803233      0.05561022 C 
atom       3.72923064     14.74219301      0.05475678 C 
atom      26.43909561      3.52438275      0.05844329 C 
atom      27.66120917      3.52314975      0.06365222 C 
atom      29.05959817      3.52148303      0.07008032 C 
atom      29.81843739      4.71558972      0.04136242 C 
atom      29.81428698      2.32469836      0.10265957 C 
atom      31.19656835      4.74044077      0.04187044 C 
atom      31.19230123      2.29463587      0.10491861 C 
atom      31.90602480      3.51624860      0.07293098 C 
atom      33.31112684      3.51421494      0.06942181 C 
atom      34.53379239      3.51133743      0.06496776 C 
atom       8.60395182      3.50097752      0.03627442 C 
atom       9.82671213      3.50121532      0.03434972 C 
atom      11.23220262      3.50534767      0.03137975 C 
atom      11.94001547      4.73096874      0.03091898 C 
atom      11.94843706      2.28473287      0.03034700 C 
atom      13.31827422      4.70851062      0.02980723 C 
atom      13.32651077      2.31718552      0.02905011 C 
atom      14.07952425      3.51551103      0.02881872 C 
atom      15.47799118      3.51953645      0.02758091 C 
atom      16.70024531      3.52152638      0.02917176 C 
atom      23.04050280      2.05396050      0.03965256 N 
atom      20.10075723      2.05278034      0.03433687 N 
atom      20.09952894      4.99546204      0.03415911 N 
atom      23.03956313      4.99596287      0.03840918 N 
atom       5.20337887      4.97423529      0.05027181 N 
atom       2.26417730      4.97776701      0.05316276 N 
atom       2.26032933      2.03434834      0.05400776 N 
atom       5.20056113      2.03306129      0.05004235 N 
atom       3.68917044      3.50327031      2.57701879 N 
atom       3.69110273      3.50295138      5.17329357 N 
atom      21.53716262      3.53048038      2.56326655 N 
atom      21.53537588      3.53121099      5.15961508 N 
atom       3.84860603      1.41557054      2.70120741 H 
atom       5.39455916      2.28461636      2.69935412 H 
atom       5.41046518      4.69933640      2.69959192 H 
atom       3.87618768      5.58868225      2.70168915 H 
atom       5.41236782      4.69846991      5.04823622 H 
atom       3.87834292      5.58828494      5.04921794 H 
atom       5.39653530      2.28498629      5.04788652 H 
atom       3.85089450      1.41535618      5.04879942 H 
atom       1.79981652      4.40251397      5.05355638 H 
atom       1.78840870      2.62788596      5.05334746 H 
atom       1.79787294      4.40286567      2.70047535 H 
atom       1.78647035      2.62817525      2.70024640 H 
atom      21.78790108      1.45180742      2.68884740 H 
atom      23.29411138      2.38762869      2.68864251 H 
atom      23.20488108      4.79984618      2.68811687 H 
atom      21.63324838      5.62196414      2.68696777 H 
atom      21.78727412      1.45227146      5.03580990 H 
atom      23.29291969      2.38896056      5.03715979 H 
atom      23.20338873      4.80061563      5.03620415 H 
atom      21.63178743      5.62285264      5.03462779 H 
atom      19.60761127      4.34926520      5.03580018 H 
atom      19.67147928      2.57563569      5.03620298 H 
atom      19.60932059      4.34838242      2.68294643 H 
atom      19.67356057      2.57484397      2.68372860 H 
atom      24.24507646      8.11192521      0.04168651 H 
atom      18.89254080      8.11100208      0.03156111 H 
atom       1.06210981      8.09492572      0.06437922 H 
atom       6.41057816      8.08948749      0.03910404 H 
atom      18.89600849     -1.06350273      0.01836144 H 
atom      24.24766643     -1.06133289      0.06524521 H 
atom       6.40194614     -1.08428810      0.03832336 H 
atom       1.05307776     -1.08074930      0.06486444 H 
atom      26.16089769      0.85439594      0.07385492 H 
atom      26.15949526      6.19733267      0.04924782 H 
atom      -0.85197142      6.18092897      0.06747608 H 
atom      -0.85787924      0.83656397      0.06785940 H 
atom      11.41201126      5.68238670      0.03238935 H 
atom      11.42739312      1.32948969      0.03157648 H 
atom       8.31657104      0.82928922      0.03130731 H 
atom      16.98123251      0.85066398      0.01842644 H 
atom      16.97904425      6.19552283      0.02853904 H 
atom       8.32170551      6.17240186      0.03200576 H 
atom      31.71564745      1.34099585      0.13051751 H 
atom      31.72329312      5.69225366      0.01712187 H 
atom      13.99432137      5.88089068      0.02965490 F 
atom      14.01080906      1.14956143      0.02783460 F 
atom      29.14021726      5.88624021      0.00977581 F 
atom      29.13175011      1.15648370      0.13224181 F 
atom      21.56832247      3.52424378      0.03138468 Zn 
atom       3.72902983      3.50404760      0.05563699 Zn 
