lattice_vector 32.5164475 0.0000000 0.0000000  
lattice_vector 0.00000000 16.1668686 0.0000000  
lattice_vector 0.00000000 0.00000000 7.6476200 
atom 28.44655977 3.3614105 0.00254243 B 
atom 11.07726067 3.36123902 0.00273143 B 
atom 5.17872221 2.25831334 2.65354284 H 
atom 3.63347957 1.38688689 2.65140267 H 
atom 5.17862655 2.25802886 4.99584143 H 
atom 3.63322685 1.38688165 4.9977605 H 
atom 1.58270406 4.37790844 2.65044625 H 
atom 1.58256336 4.37759602 4.99906823 H 
atom 1.56869478 2.60378598 4.99898147 H 
atom 3.6665603 5.56190028 2.65156784 H 
atom 5.19786329 4.66622268 2.65323283 H 
atom 3.66702847 5.56188879 4.99774522 H 
atom 5.19810358 4.66582377 4.99567782 H 
atom -1.03278329 6.00000000 0.00124182 H 
atom 6.03406641 -1.05840156 0.00056593 H 
atom 6.0351316 8.11104112 -0.00181918 H 
atom 8.03928334 5.99898318 0.00228786 H 
atom 1.56844369 2.60409806 2.65021929 H 
atom 21.43714217 2.26090019 2.65807768 H 
atom 19.8923051 1.38915022 2.65653742 H 
atom 21.43733904 2.26033406 5.00174235 H 
atom 19.8921282 1.38927621 5.00347227 H 
atom 17.84074537 4.37889886 2.65535253 H 
atom 17.84220435 4.38012988 5.00510846 H 
atom 17.82783733 2.60626919 5.00580853 H 
atom 19.92422998 5.56396151 2.6566934 H 
atom 21.45556666 4.66874736 2.65754518 H 
atom 19.92533462 5.56393547 5.00347847 H 
atom 21.45651415 4.66843854 5.00135259 H 
atom 15.22906729 6.00216712 0.00231509 H 
atom 22.29222527 -1.05653004 0.0028816 H 
atom 22.29299696 8.11368926 0.00312875 H 
atom 24.29329487 6.00128161 0.00625109 H 
atom 17.82779213 2.6050043 2.65592574 H 
atom 8.03928334 0.950000 0.00228786 H 
atom -1.03278329 0.95101682 0.00124182 H 
atom 15.22906729 0.95318394 0.00231509 H 
atom 24.29329487 0.95229843 0.00625109 H 
atom 17.23299696 8.11368926 0.00312875 H 
atom 17.23222527 -1.05653004 0.0028816 H 
atom 0.97406641 -1.05840156 0.00056593 H 
atom 0.9751316 8.11104112 -0.00181918 H 
atom 4.15459116 2.26813045 3.04795492 C 
atom 4.15453171 2.26806675 4.60131306 C 
atom 2.08613274 3.48684732 3.04722966 C 
atom 2.08617304 3.48672859 4.60210016 C 
atom 4.17377949 4.67246361 3.04790315 C 
atom 4.17393011 4.6723648 4.60124747 C 
atom 3.50517564 6.92039475 -0.00095961 C 
atom 2.25515504 6.29183906 -0.00043116 C 
atom 0.68682749 4.7260789 0.00078649 C 
atom 0.97720451 7.00019141 -0.00037216 C 
atom -0.01735077 6.00281317 0.00050268 C 
atom 0.0577912 3.4768019 0.00115819 C 
atom 0.68651776 2.22730289 0.00109087 C 
atom 0.9763067 -0.04683776 0.00005092 C 
atom 2.25451168 0.66108097 0.0007279 C 
atom 3.50443377 0.03227112 0.00072603 C 
atom 4.75376662 0.66075919 0.00084425 C 
atom 4.75435246 6.29156793 -0.00028659 C 
atom 6.03185203 6.99953366 -0.00052454 C 
atom 6.32009802 4.72566336 0.00103868 C 
atom 7.02584098 6.00190629 0.0004575 C 
atom 6.94860013 3.47604524 0.00190997 C 
atom 6.31980822 2.22652388 0.00168382 C 
atom 7.02530085 0.95021474 0.00142617 C 
atom 6.0312032 -0.04731376 0.00073872 C 
atom 8.40444743 3.47000000 0.00231162 C 
atom 9.6344721 3.39945275 0.00253747 C 
atom 13.62537845 3.4203469 0.00243835 C 
atom 14.85625623 3.47202623 0.00222387 C 
atom 3.6512996 8.37516608 -0.00166822 C 
atom 3.70805682 9.60879973 -0.00265593 C 
atom 3.74524419 10.93975721 -0.00300532 C 
atom 3.74518155 12.17940016 -0.00269977 C 
atom 3.70690197 13.51032998 -0.00183803 C 
atom 3.65069895 14.74399165 -0.00062289 C 
atom -0.01792034 0.95086661 0.00044593 C 
atom 20.41327721 2.2703864 3.05328607 C 
atom 20.41339072 2.27033578 4.60670946 C 
atom 18.34460076 3.48835943 3.05292305 C 
atom 18.34509905 3.48891591 4.60785806 C 
atom 20.43180895 4.67479269 3.0531549 C 
atom 20.43242363 4.67470462 4.60656788 C 
atom 19.76305322 6.92297458 0.0042269 C 
atom 18.51274764 6.29475055 0.00475087 C 
atom 16.9458684 4.7288546 0.00489552 C 
atom 17.23284075 7.00102683 0.00356263 C 
atom 16.23575694 6.00511963 0.00388596 C 
atom 16.31955237 3.47887624 0.0042023 C 
atom 16.94547223 2.22866722 0.00470961 C 
atom 17.2322227 -0.04348292 0.00235751 C 
atom 18.51222911 0.66257568 0.0049876 C 
atom 19.76246178 0.03419521 0.00452041 C 
atom 21.01207301 0.66232671 0.00502926 C 
atom 21.01262915 6.29467218 0.00431992 C 
atom 22.29204091 7.00065914 0.00221752 C 
atom 22.57693171 4.72873479 0.00509285 C 
atom 23.28896688 6.00451508 0.0029674 C 
atom 23.20253737 3.47840793 0.00646165 C 
atom 22.57676146 2.22808614 0.00692413 C 
atom 23.28843754 0.9521685 0.00480587 C 
atom 22.29136395 -0.04377164 0.00338458 C 
atom 24.6674715 3.47225789 0.00433725 C 
atom 25.89842668 3.42053821 0.00368077 C 
atom 29.88939036 3.39951713 0.00160061 C 
atom 31.11938562 3.47007303 0.00107315 C 
atom 19.91212768 8.37636869 0.00068475 C 
atom 19.96993669 9.61055482 -0.0007988 C 
atom 20.00736459 10.94176587 -0.00164047 C 
atom 20.00724384 12.18204466 -0.00162812 C 
atom 19.96870071 13.51324605 -0.0006335 C 
atom 19.91136214 14.74744873 0.00116476 C 
atom 16.23526665 0.95257344 0.00238555 C 
atom 3.47331032 3.47581339 2.52508304 N 
atom 3.47337423 3.47578437 5.12415836 N 
atom 2.03496345 4.94519944 0.0002686 N 
atom 2.0346065 2.00783376 0.00129509 N 
atom 4.97279846 2.00737802 0.00114879 N 
atom 12.35185084 3.37002677 0.00269238 N 
atom 4.97313653 4.94501231 0.00072545 N 
atom 19.73161761 3.47790216 2.53083296 N 
atom 19.73228525 3.47799506 5.12926829 N 
atom 18.29450074 4.94804277 0.00560018 N 
atom 18.29408162 2.00931502 0.00663456 N 
atom 27.17195764 3.36945673 0.00311629 N 
atom 21.22934462 2.00894066 0.00677079 N 
atom 21.22959939 4.94812582 0.00608378 N 
atom 3.50171352 3.47632534 0.00093761 Zn 
atom 19.7597088 3.47851446 0.00677015 Zn 
