lattice_vector     35.51913918     -0.00000000     -0.00000000 
lattice_vector     -0.00000000     16.15982511     -0.00000000 
lattice_vector     -0.00000000      0.00000000      7.62405289 
atom      13.48713116      4.25420135     -1.02012505 H 
atom      13.48435111      8.31026556      0.49729083 H 
atom      13.47946428      2.68296867      1.08232375 H 
atom      13.49455636     -1.36401049     -0.45823279 H 
atom      29.02620479      4.26578242      1.00570022 H 
atom      29.03979904      8.31124580     -0.53992589 H 
atom      29.02331199     -1.34398344      0.58060008 H 
atom      29.04389158      2.66148029     -1.06572277 H 
atom       5.16966838      2.24625942      2.65171934 H 
atom       3.62535043      1.37244541      2.64604071 H 
atom       5.16531162      2.24133215      4.99217330 H 
atom       3.61856664      1.37223670      4.99064891 H 
atom       1.57015445      4.36066036      2.64392595 H 
atom       1.57066892      4.36389104      4.99087642 H 
atom       1.55547270      2.59023591      4.99220081 H 
atom       3.65171612      5.54730385      2.64830737 H 
atom       5.18504744      4.65471573      2.64833482 H 
atom       3.65607510      5.54702652      4.99271618 H 
atom       5.18682663      4.64972518      4.98895018 H 
atom      -1.04069078      3.46115261     -0.00075120 H 
atom       3.50248342     -1.06962760      0.01189285 H 
atom       3.50034224      7.99364263      0.00353066 H 
atom       8.03998024      3.46334014      0.01730304 H 
atom       1.55854050      2.58698739      2.64510228 H 
atom      22.99993682      2.33914808      2.64368088 H 
atom      21.49513000      1.39970648      2.65167134 H 
atom      23.00923314      2.35852289      4.98652058 H 
atom      21.51548985      1.40163639      4.99682576 H 
atom      19.31328803      4.29462545      2.64805818 H 
atom      19.30145013      4.27506738      4.99610319 H 
atom      19.38667311      2.50326657      4.98732756 H 
atom      21.34091140      5.57216342      2.64092651 H 
atom      22.90967262      4.74383610      2.65504634 H 
atom      21.31476528      5.57149506      4.98686402 H 
atom      22.89410520      4.76405781      4.99706227 H 
atom      16.72854659      3.47993250      0.00666076 H 
atom      21.25960114     -1.05689462      0.01481370 H 
atom      21.25954659      8.01659731     -0.00111262 H 
atom      25.78789645      3.47990261      0.00526550 H 
atom      19.37758983      2.52107322      2.63943002 H 
atom       4.14466544      2.25419774      3.04356098 C 
atom       4.14195863      2.25300273      4.59615103 C 
atom       2.07491141      3.47077436      3.04128202 C 
atom       2.07408164      3.47236759      4.59545237 C 
atom       4.16119363      4.65860128      3.04322913 C 
atom       4.16229485      4.65740646      4.59579267 C 
atom       3.50054410      6.90289724      0.00468208 C 
atom       2.25010579      6.27432263      0.00366891 C 
atom       0.68010046      4.71070753      0.01658463 C 
atom       0.97031450      6.98172727      0.00752181 C 
atom      -0.02282262      5.98672546      0.02733364 C 
atom       0.05052021      3.46122694      0.00182635 C 
atom       0.68055540      2.21190045     -0.01086224 C 
atom       0.97166114     -0.05895454     -0.00292410 C 
atom       2.25128550      0.64900924      0.00684150 C 
atom       3.50220387      0.02111384      0.01025254 C 
atom       4.75187027      0.64979517      0.01328786 C 
atom       4.75035893      6.27470934      0.00608996 C 
atom       6.02937814      6.98269261     -0.00224371 C 
atom       6.31861840      4.71205137     -0.00541972 C 
atom      13.73530274      6.25977540     -0.20248476 C 
atom      12.97779619      5.14905655     -0.64952870 C 
atom      11.03676207      6.25831401     -0.20524647 C 
atom      12.97782023      7.39419171      0.18057170 C 
atom       8.40459161      6.14270142     -0.07346316 C 
atom       9.62279375      6.21798805     -0.13645179 C 
atom      11.03783280      0.67288833      0.25622106 C 
atom       9.62394473      0.71001780      0.18040849 C 
atom      12.97416134      1.78859425      0.70518453 C 
atom      13.73639277      0.68602263      0.24608302 C 
atom      12.98391071     -0.45157604     -0.13762835 C 
atom       8.40606934      0.78484511      0.11018004 C 
atom      15.13539287      6.22164843     -0.14329876 C 
atom      16.35672074      6.15115076     -0.09081779 C 
atom      15.13588582      0.73319168      0.17637875 C 
atom      16.35656891      0.80675625      0.11285409 C 
atom      26.16211336      6.14970035      0.08107322 C 
atom      27.38325438      6.23086529      0.12086324 C 
atom      31.48194652      6.26243809      0.18960188 C 
atom      29.53817504      5.15795461      0.63252799 C 
atom      28.78358917      6.26749477      0.17767586 C 
atom      29.54375231      7.39730835     -0.21317618 C 
atom      32.89628757      6.22148604      0.13148979 C 
atom      26.16260655      0.80899683     -0.08047818 C 
atom      27.38387214      0.73095158     -0.12355047 C 
atom      31.48251986      0.66618783     -0.19728070 C 
atom      29.53506888     -0.44253700      0.23200877 C 
atom      28.78404258      0.68421847     -0.18461439 C 
atom      29.54765672      1.77495275     -0.66874511 C 
atom      32.89728145      0.69862289     -0.13440261 C 
atom      34.11433279      6.14271748      0.07219198 C 
atom      34.11519174      0.77987141     -0.07568492 C 
atom       7.02258189      5.98803399     -0.02202537 C 
atom       6.94868617      3.46296404      0.01400796 C 
atom       6.31930676      2.21341622      0.03041720 C 
atom       7.02391804      0.93786643      0.05342814 C 
atom       6.03135727     -0.05741824      0.03003606 C 
atom       0.82039746      8.35755740     -0.00050018 C 
atom       0.76386287      9.59078802     -0.00169402 C 
atom       0.72549377     10.92156513     -0.00148834 C 
atom       0.72566188     12.16090391      0.00096943 C 
atom       0.76510588     13.49172535      0.00296286 C 
atom       0.82203703     14.72493583      0.00262228 C 
atom       6.17948186      8.35873224      0.00227040 C 
atom       6.23847969      9.59190427      0.00710420 C 
atom       6.27859540     10.92280641      0.01293699 C 
atom       6.27978461     12.16221732      0.01890333 C 
atom       6.23997606     13.49319005      0.02493664 C 
atom       6.18224532     14.72643593      0.02878661 C 
atom      -0.02183713      0.93561141     -0.02580323 C 
atom      21.97836338      2.30449358      3.04323036 C 
atom      21.98467147      2.30964432      4.59586741 C 
atom      19.85481429      3.42414389      3.04101724 C 
atom      19.85395805      3.41569299      4.59525348 C 
atom      21.88375339      4.70707593      3.04317438 C 
atom      21.87406959      4.71140281      4.59596846 C 
atom      21.25988323      6.92588186      0.00185196 C 
atom      20.01069342      6.29595580     -0.00080230 C 
atom      18.44540921      4.72956969     -0.01418572 C 
atom      18.72975145      7.00023873     -0.01823082 C 
atom      17.73889190      6.00329797     -0.03933430 C 
atom      17.81889025      3.47960389      0.00694127 C 
atom      18.44500198      2.22973086      0.02864334 C 
atom      18.72954755     -0.04075858      0.03425170 C 
atom      20.01059441      0.66362496      0.01574279 C 
atom      21.25995841      0.03379183      0.01279695 C 
atom      22.50877169      0.66341762      0.00787476 C 
atom      22.50844886      6.29619555      0.00648313 C 
atom      23.78892362      7.00019723      0.01694304 C 
atom      24.07131786      4.72991438      0.02241536 C 
atom      24.77957914      6.00310046      0.03778075 C 
atom      24.69728834      3.47960605      0.00614735 C 
atom      24.07175011      2.22925203     -0.00971208 C 
atom      24.78003573      0.95616892     -0.02940511 C 
atom      23.78938824     -0.04082763     -0.00668025 C 
atom      18.57431322      8.37576052     -0.01367716 C 
atom      18.51142997      9.60884907     -0.00593668 C 
atom      18.46932909     10.93990445      0.00316498 C 
atom      18.46854098     12.17935202      0.01298588 C 
atom      18.51133175     13.51044133      0.02344858 C 
atom      18.57385928     14.74355019      0.03076105 C 
atom      23.94442253      8.37566385      0.01103884 C 
atom      24.00794563      9.60871732      0.00724913 C 
atom      24.05015767     10.93979641      0.00425789 C 
atom      24.05044220     12.17927986      0.00236536 C 
atom      24.00800885     13.51042269      0.00007686 C 
atom      23.94479885     14.74351253     -0.00240559 C 
atom      17.73855287      0.95606536      0.05593885 C 
atom       3.46252802      3.46115776      2.52008047 N 
atom       3.46112409      3.46104935      5.11845248 N 
atom       2.02951910      4.92876486      0.00449221 N 
atom       2.03005106      1.99442519      0.00693435 N 
atom       4.97110220      1.99542805      0.00881988 N 
atom       4.97022139      4.92923131      0.00860758 N 
atom      21.24057712      3.47877313      2.52035374 N 
atom      21.23888336      3.47891313      5.11769579 N 
atom      19.79394022      4.94928794      0.00426942 N 
atom      19.79360317      2.00996096      0.01016744 N 
atom      11.65335655      5.13456153     -0.65216234 N 
atom      11.65148387      7.40378597      0.18266784 N 
atom      11.64957726      1.79588539      0.71137256 N 
atom      11.65762670     -0.46828076     -0.13624742 N 
atom      30.86251662      5.14174343      0.64002166 N 
atom      30.87015819      7.40519658     -0.21057824 N 
atom      30.86132672     -0.46185810      0.22918373 N 
atom      30.87235466      1.77967349     -0.67655151 N 
atom      22.72456654      2.00936172      0.00833342 N 
atom      22.72411329      4.94989165      0.00765371 N 
atom       3.49678249      3.46178742      0.00673603 Zn 
atom      21.25824947      3.47957462      0.01112814 Zn 
