lattice_vector     35.76064099      0.00000000      0.00000000 
lattice_vector     -0.00000000     16.08939154     -0.00000000 
lattice_vector     -0.00000000      0.00000000      7.64343169 
atom      25.14012758      0.97868351      0.01115588 C 
atom      24.46002870      2.25199333      0.01065716 C 
atom      22.90428593      0.70895382      0.01553348 C 
atom      24.16939849      0.01635890      0.01432831 C 
atom      21.63032627      0.06689741      0.01837009 C 
atom      20.35531117      0.70818020      0.01864320 C 
atom      19.08925643      0.01629232      0.02273750 C 
atom      18.11887506      0.97940719      0.02160248 C 
atom      18.79855657      2.25267149      0.01702157 C 
atom      18.15076437      3.52401595      0.01588413 C 
atom      18.79826301      4.79568341      0.01634478 C 
atom      20.35589520      6.33955076      0.01694470 C 
atom      19.09008364      7.03193914      0.01977001 C 
atom      18.11912212      6.06927242      0.01913349 C 
atom      21.63152619      6.98017328      0.01560072 C 
atom      22.90546804      6.33802760      0.01185904 C 
atom      24.17087506      7.02995202      0.00544237 C 
atom      24.46086037      4.79408514      0.00785055 C 
atom      25.14138559      6.06717612      0.00261312 C 
atom      25.10833860      3.52275573      0.00764850 C 
atom       7.25895924      6.05469113      0.00525367 C 
atom       6.29092796      7.02153005      0.00755320 C 
atom       5.02342106      6.33262517      0.01279809 C 
atom       6.57355957      4.78462974      0.00935426 C 
atom       3.74978878      6.97548520      0.01532236 C 
atom       2.47469216      6.33393405      0.01616765 C 
atom       1.20638019      7.02246883      0.01661202 C 
atom       0.23846001      6.05506607      0.01536138 C 
atom       0.92320060      4.78498219      0.01463203 C 
atom       0.28206749      3.51338000      0.01319387 C 
atom       0.92291144      2.24162637      0.01446319 C 
atom       0.23833630      0.97145983      0.01544628 C 
atom       1.20641372      0.00417167      0.01668650 C 
atom       2.47469084      0.69283870      0.01609059 C 
atom       3.74995984      0.05143379      0.01527121 C 
atom       5.02368784      0.69422529      0.01284752 C 
atom       6.57392471      2.24233756      0.00939532 C 
atom       6.29124162      0.00541431      0.00835456 C 
atom       7.25931956      0.97229426      0.00610743 C 
atom       7.21543329      3.51356007      0.00789393 C 
atom       4.40453676      4.70876315      3.05892221 C 
atom       4.38649075      2.30313350      3.05889530 C 
atom       2.31734756      3.52132570      3.05809797 C 
atom       2.31775167      3.52126971      4.61333097 C 
atom       4.38656322      2.30339675      4.61210427 C 
atom       4.40447399      4.70861368      4.61204918 C 
atom      22.31808148      2.35075379      3.05981214 C 
atom      20.20262388      3.48765002      3.05905764 C 
atom      20.20287896      3.48784053      4.61429403 C 
atom      22.31848958      2.35089892      4.61280592 C 
atom      22.24212660      4.75498448      4.61258387 C 
atom      22.24181079      4.75463086      3.05925548 C 
atom      21.63220977      8.38193592      0.01798403 C 
atom      21.63330936      9.61591668      0.01983894 C 
atom      21.63321521     10.94828190      0.02192089 C 
atom      21.63336868     12.18810271      0.02251602 C 
atom      21.63277599     13.52048366      0.02241946 C 
atom      21.63131348     14.75445937      0.02157476 C 
atom       3.75030455      8.37435839      0.01598587 C 
atom       3.74971084      9.60798793      0.01722935 C 
atom       3.74947036     10.93844219      0.01700172 C 
atom       3.74946915     12.17786161      0.01683678 C 
atom       3.74955807     13.50831796      0.01663652 C 
atom       3.75025845     14.74195156      0.01594524 C 
atom      26.51871432      3.52132351      0.00459294 C 
atom      27.74382324      3.51998351      0.00296470 C 
atom      29.14911164      3.51837533      0.00152361 C 
atom      29.90200350      4.73245305      0.01263229 C 
atom      29.89941952      2.30281501     -0.01032046 C 
atom      31.28677855      4.72644325      0.01326849 C 
atom      31.28421824      2.30550491     -0.00954961 C 
atom      32.00896149      3.51516386      0.00295970 C 
atom      33.41332551      3.51403479      0.00555141 C 
atom      34.63606015      3.51417662      0.00940395 C 
atom       8.62278501      3.51470911      0.00408476 C 
atom       9.84558038      3.51638113      0.00265748 C 
atom      11.25025955      3.51752716      0.00322397 C 
atom      11.97280962      4.72872375      0.01158480 C 
atom      11.97525418      2.30787949     -0.00395086 C 
atom      13.35765715      4.73456288      0.01349918 C 
atom      13.36011209      2.30503613     -0.00194866 C 
atom      14.11064110      3.52059874      0.00732977 C 
atom      15.51577832      3.52204063      0.01021072 C 
atom      16.74097507      3.52255712      0.01520257 C 
atom      23.10543705      2.06037508      0.01342723 N 
atom      20.15380704      2.05973497      0.01529733 N 
atom      20.15362067      4.98810480      0.01498823 N 
atom      23.10630946      4.98641538      0.01307738 N 
atom       5.22039101      4.98170932      0.01391589 N 
atom       2.27698547      4.98300777      0.01528155 N 
atom       2.27676438      2.04371437      0.01512729 N 
atom       5.22071046      2.04517295      0.01352445 N 
atom       3.70523867      3.51114948      2.53732122 N 
atom       3.70549139      3.51118035      5.13348240 N 
atom      21.58966443      3.53061189      2.53824463 N 
atom      21.59027058      3.53100996      5.13447093 N 
atom       3.86295931      1.42318128      2.66206931 H 
atom       5.40958388      2.29110100      2.66125898 H 
atom       5.42770766      4.70542074      2.66127710 H 
atom       3.89442299      5.59652093      2.66201781 H 
atom       5.42772469      4.70549888      5.00951330 H 
atom       3.89429944      5.59634431      5.00897893 H 
atom       5.40979292      2.29139696      5.00939711 H 
atom       3.86321065      1.42343158      5.00916683 H 
atom       1.81494259      4.41225618      5.01214421 H 
atom       1.80219950      2.63755883      5.01210786 H 
atom       1.81456237      4.41240156      2.65949772 H 
atom       1.80163437      2.63768236      2.65941639 H 
atom      21.82982588      1.45048654      2.66363567 H 
atom      23.34094963      2.37869034      2.66233468 H 
atom      23.26448373      4.79114838      2.66216959 H 
atom      21.69714244      5.62173136      2.66261966 H 
atom      21.83040976      1.45078104      5.00957930 H 
atom      23.34154000      2.37894521      5.00974572 H 
atom      23.26497409      4.79177907      5.00914347 H 
atom      21.69747555      5.62213454      5.00914152 H 
atom      19.66635830      4.35916711      5.01266608 H 
atom      19.72103531      2.58523873      5.01271437 H 
atom      19.66592221      4.35889835      2.66077163 H 
atom      19.72050337      2.58496484      2.66117134 H 
atom      24.29995096      8.10808810      0.00299419 H 
atom      18.96136955      8.11014207      0.02183324 H 
atom       1.07513631      8.10043071      0.01750183 H 
atom       6.42177935      8.09952736      0.00540186 H 
atom      18.96015110     -1.06185171      0.02614593 H 
atom      24.29803886     -1.06182253      0.01561109 H 
atom       6.42216326     -1.07256938      0.00673103 H 
atom       1.07526415     -1.07379408      0.01773881 H 
atom      26.21326535      0.83797090      0.00964848 H 
atom      26.21465590      6.20734880     -0.00299158 H 
atom      -0.83889273      6.18816889      0.01501722 H 
atom      -0.83900951      0.83823480      0.01552267 H 
atom      11.43009786      5.67145245      0.01679965 H 
atom      11.43456388      1.36401006     -0.01105266 H 
atom       8.33672842      0.83956381      0.00245917 H 
atom      17.04576190      0.83868014      0.02439768 H 
atom      17.04601572      6.21058735      0.02060672 H 
atom       8.33633509      6.18753162      0.00082949 H 
atom      31.82530030      1.36187627     -0.01856076 H 
atom      31.82990935      5.66889328      0.02219089 H 
atom      21.62667036      3.52411434      0.01247689 Zn 
atom       3.74479425      3.51316764      0.01942974 Zn 
atom      14.06345287      6.07173242      0.02218003 C 
atom      14.06828727      0.96915811     -0.00869975 C 
atom      28.39993288      6.21947160      1.11983366 F 
atom      30.07283981      7.11118763      0.03544097 F 
atom      30.06520097     -0.07649632     -0.03801887 F 
atom      28.40299690      0.79699410      1.07746149 F 
atom      28.39278040      0.82068720     -1.11828952 F 
atom      28.40707429      6.23944167     -1.07571625 F 
atom      14.85648522      6.22439548      1.12124540 F 
atom      14.85721624      6.23756188     -1.07452903 F 
atom      13.19482545     -0.07438063     -0.02047202 F 
atom      14.85633331      0.80344068      1.09231186 F 
atom      14.86743851      0.81915902     -1.10351718 F 
atom      13.18803604      7.11368697      0.02817573 F 
atom      29.19146378      0.96672473     -0.02259950 C 
atom      29.19676382      6.06984729      0.02342721 C 
