lattice_vector     35.70417696      0.00000000     -0.00000000 
lattice_vector      0.00000000     16.10605458      0.00000000 
lattice_vector      0.00000000     -0.00000000      7.63123217 
atom      25.05651290      0.98275902      0.01036675 C 
atom      24.36817622      2.25087275     -0.00047328 C 
atom      22.82044353      0.70176188      0.02214571 C 
atom      24.08981534      0.01542838      0.02547476 C 
atom      21.54844942      0.05479871      0.02908585 C 
atom      20.27464997      0.69856104      0.02906429 C 
atom      19.00525854      0.01166267      0.04438562 C 
atom      18.03789811      0.97889894      0.04415155 C 
atom      18.72391196      2.24804068      0.02869831 C 
atom      18.07723212      3.51783289      0.02816629 C 
atom      18.71870077      4.78969386      0.02707695 C 
atom      20.26926548      6.33985933      0.02566414 C 
atom      18.99924789      7.02612544      0.04003745 C 
atom      18.03199634      6.05844328      0.04079167 C 
atom      21.54318659      6.98478558      0.02207814 C 
atom      22.81604092      6.33943575      0.01635094 C 
atom      24.08480870      7.02691179      0.00909978 C 
atom      24.36598146      4.79158142     -0.00411272 C 
atom      25.05264354      6.06052086     -0.00563287 C 
atom      25.01070180      3.52162770     -0.01662972 C 
atom       7.20359263      6.02552494      0.06218828 C 
atom       6.24012182      6.99625900      0.06962080 C 
atom       4.96971906      6.31370358      0.05620666 C 
atom       6.51285283      4.75876977      0.04707013 C 
atom       3.70066160      6.96558033      0.05496829 C 
atom       2.42487268      6.32597124      0.04816557 C 
atom       1.15778303      7.01628394      0.04929623 C 
atom       0.18847742      6.05063610      0.04245246 C 
atom       0.87110467      4.77949645      0.03800971 C 
atom       0.22587386      3.51028036      0.02901200 C 
atom       0.86354540      2.23733723      0.03119749 C 
atom       0.17383798      0.97025843      0.02732147 C 
atom       1.13749470     -0.00096690      0.03163320 C 
atom       2.40882763      0.68166107      0.03846973 C 
atom       3.67958061      0.03143159      0.04865664 C 
atom       4.95466061      0.67185676      0.05787472 C 
atom       6.50774222      2.21737132      0.05314998 C 
atom       6.22079063     -0.01859167      0.08257167 C 
atom       7.19050990      0.94648022      0.07836254 C 
atom       7.15246785      3.48676834      0.04454490 C 
atom       4.34419624      4.69075413      3.08626639 C 
atom       4.32948610      2.28782264      3.08511597 C 
atom       2.26115688      3.50178020      3.09177721 C 
atom       2.26600472      3.49998162      4.64703018 C 
atom       4.33830485      2.28603424      4.63860744 C 
atom       4.35185810      4.69144706      4.63963569 C 
atom      22.24676767      2.35140882      3.05711855 C 
atom      20.12402182      3.46892464      3.06656311 C 
atom      20.12879170      3.46476119      4.62182326 C 
atom      22.25522502      2.34729685      4.61052215 C 
atom      22.15714407      4.75116501      4.61468447 C 
atom      22.15053039      4.75172032      3.06106620 C 
atom      21.54647250      8.38624858      0.01372015 C 
atom      21.54345846      9.62031371      0.02347021 C 
atom      21.55538840     10.95288579      0.02852585 C 
atom      21.56483595     12.19274207      0.03845800 C 
atom      21.55974830     13.52539312      0.03667933 C 
atom      21.55483354     14.75940744      0.03201963 C 
atom       3.70843675      8.36585895      0.05781137 C 
atom       3.71373342      9.59980301      0.05983651 C 
atom       3.70721669     10.93168848      0.05891849 C 
atom       3.69696252     12.17142028      0.05380246 C 
atom       3.68849823     13.50328554      0.04496941 C 
atom       3.67284552     14.73716875      0.04734388 C 
atom      26.41937536      3.52228611     -0.04635597 C 
atom      27.64208059      3.52488592     -0.08564357 C 
atom      29.04278681      3.52479338     -0.09714675 C 
atom      29.80008962      4.72694043     -0.02057812 C 
atom      29.79705993      2.32010668     -0.17289837 C 
atom      31.18289587      4.73571364     -0.00211776 C 
atom      31.17992917      2.30386276     -0.15363739 C 
atom      31.89591768      3.51774326     -0.06110506 C 
atom      33.30102514      3.51705001     -0.02215217 C 
atom      34.52283286      3.51516522      0.01243830 C 
atom       8.56069287      3.48699091      0.02980075 C 
atom       9.78309102      3.48973663      0.02406933 C 
atom      11.18919238      3.47789959      0.01841378 C 
atom      11.90346495      4.69715970      0.01288189 C 
atom      11.90584571      2.26135617      0.02338170 C 
atom      13.28592913      4.68827246      0.01397389 C 
atom      13.28977046      2.27729641      0.02442965 C 
atom      14.04439974      3.48390327      0.02066465 C 
atom      15.44526882      3.49322140      0.02225704 C 
atom      16.66873739      3.50714073      0.03161881 C 
atom       3.80499973      1.40735002      2.69114615 H 
atom       5.35060174      2.27681944      2.68318702 H 
atom       5.36564574      4.68901358      2.68497713 H 
atom       3.83124478      5.57807143      2.69254961 H 
atom       5.37712906      4.68859973      5.03126057 H 
atom       3.84315232      5.57873899      5.03871052 H 
atom       5.36377882      2.27722171      5.02955918 H 
atom       3.82011895      1.40405619      5.03728569 H 
atom       1.76293981      4.38932163      5.04806322 H 
atom       1.75434358      2.61450608      5.04578944 H 
atom       1.75537759      4.39261534      2.69686344 H 
atom       1.74451338      2.61805533      2.69485710 H 
atom      21.76453966      1.44771792      2.66177985 H 
atom      23.26748219      2.38879305      2.65532392 H 
atom      23.17145529      4.79625343      2.66072304 H 
atom      21.59819763      5.61532976      2.66781242 H 
atom      21.77778558      1.44172805      5.00730044 H 
atom      23.27997840      2.38429809      5.00173488 H 
atom      23.18124965      4.79614661      5.00654902 H 
atom      21.60644602      5.61279088      5.01412823 H 
atom      19.58536174      4.32944135      5.02438998 H 
atom      19.65791126      2.55619198      5.01908176 H 
atom      19.57816129      4.33652549      2.67326600 H 
atom      19.64776998      2.56329872      2.66873006 H 
atom      24.21570256      8.10449856      0.01423922 H 
atom      18.86814564      8.10389959      0.04981142 H 
atom       1.02869469      8.09438873      0.05438046 H 
atom       6.37485386      8.07325720      0.08399625 H 
atom      18.87429466     -1.06604061      0.05541631 H 
atom      24.22134640     -1.06191123      0.03875286 H 
atom       6.34922002     -1.09632741      0.10270786 H 
atom       1.00219947     -1.07818737      0.03145519 H 
atom      26.13424950      0.85645876      0.00937779 H 
atom      26.13037210      6.18764992     -0.01555837 H 
atom      -0.88866408      6.18431995      0.04022956 H 
atom      -0.90392762      0.84261963      0.02337767 H 
atom      11.36607944      5.64296061      0.01051074 H 
atom      11.37275277      1.31313350      0.02920810 H 
atom       8.26741497      0.81277158      0.09396988 H 
atom      16.96029447      0.85158271      0.05508272 H 
atom      16.95419573      6.18556234      0.05086558 H 
atom       8.28123343      6.15257449      0.06896663 H 
atom      31.71450619      1.35781521     -0.20415914 H 
atom      31.72108099      5.67844828      0.06783736 H 
atom      14.11900297      6.21738290      0.00502010 Cl 
atom      14.13017478      0.75191732      0.02919583 Cl 
atom      28.96524050      6.25273970      0.06219358 Cl 
atom      28.95707085      0.79980457     -0.29473660 Cl 
atom      21.54132459      3.52010076     -0.03055601 Zn 
atom       3.68559391      3.49718957     -0.00165761 Zn 
atom      23.01511137      2.05300392      0.00876028 N 
atom      20.07819773      2.05063226      0.01858975 N 
atom      20.07341618      4.98786025      0.01715101 N 
atom      23.01243635      4.98797634      0.01033907 N 
atom       5.16038515      4.96171057      0.04355444 N 
atom       2.22545849      4.97473833      0.04068808 N 
atom       2.21694255      2.03377393      0.03720599 N 
atom       5.15406303      2.02277037      0.04255642 N 
atom       3.64548828      3.49383432      2.56785666 N 
atom       3.65592204      3.49242152      5.16426069 N 
atom      21.50703489      3.52476802      2.54178353 N 
atom      21.51785493      3.52017185      5.13825005 N 
