lattice_vector     35.73119671      0.00000000      0.00000000 
lattice_vector      0.00000000     16.16717996      0.00000000 
lattice_vector     -0.00000000     -0.00000000      7.65431459 
atom      34.46294106      0.81458723     -0.09953339 C 
atom      33.24498104      0.75391340     -0.18376979 C 
atom      31.84087767      0.70754225     -0.25735345 C 
atom      31.13640575      1.79210269     -0.83056393 C 
atom      29.75797104      1.75928109     -0.84353623 C 
atom      29.00268505      0.69645751     -0.29452725 C 
atom      29.75301478     -0.38212301      0.22918908 C 
atom      31.13332058     -0.40012449      0.25901428 C 
atom      27.60497741      0.73599610     -0.24052396 C 
atom      26.38806949      0.81237149     -0.16032980 C 
atom      25.00921115      0.96367752     -0.08622790 C 
atom      24.30363432      2.23817996     -0.04517103 C 
atom      22.74217554      0.67138599     -0.01518612 C 
atom      24.02042409     -0.03423000     -0.05014533 C 
atom      21.49510890      0.03979704     -0.00527493 C 
atom      20.24912673      0.67355835      0.00862151 C 
atom      18.96689620     -0.03000192      0.03587758 C 
atom      17.98000534      0.96957476      0.06264696 C 
atom      18.68703746      2.24272107      0.02815639 C 
atom      18.05923662      3.49205091      0.00417739 C 
atom      18.68639211      4.74216504     -0.01864747 C 
atom      20.25133006      6.30872602      0.00980190 C 
atom      18.96980130      7.01404191     -0.00726799 C 
atom      17.98212756      6.01549952     -0.04182852 C 
atom      21.49900938      6.93894929      0.02145332 C 
atom      22.74507366      6.30630871      0.02063306 C 
atom      24.02462620      7.01017328      0.04085807 C 
atom      24.30540972      4.73789792      0.01964040 C 
atom      25.01225819      6.01110302      0.05410090 C 
atom      26.39218058      6.15468012      0.10871259 C 
atom      27.61125718      6.20802711      0.16897217 C 
atom      29.00874901      6.23652402      0.21274846 C 
atom      29.76026162      7.32861766     -0.28063699 C 
atom      31.14037396      7.34967321     -0.29585663 C 
atom      31.84455020      6.22943576      0.19737942 C 
atom      31.13864883      5.12241663      0.72348369 C 
atom      29.76018491      5.15539726      0.73020308 C 
atom      33.24945612      6.19924828      0.16000896 C 
atom      34.46957502      6.15533451      0.10550812 C 
atom      24.93145008      3.48760955     -0.02075761 C 
atom      24.17442309      8.38613654      0.04355056 C 
atom      24.22625882      9.61963794      0.04424342 C 
atom      24.26811212     10.95101813      0.03788696 C 
atom      24.26716769     12.19038007      0.02005580 C 
atom      24.23110101     13.52213309     -0.00996262 C 
atom      24.17630077     14.75542484     -0.03889322 C 
atom      18.81671203      8.39022054      0.00509249 C 
atom      18.76198397      9.62326479      0.02447271 C 
atom      18.72187740     10.95496423      0.04260553 C 
atom      18.71800307     12.19428063      0.05388410 C 
atom      18.74897829     13.52657902      0.05960934 C 
atom      18.81750553     14.75923683      0.06066492 C 
atom      16.59956343      6.16107393     -0.10695144 C 
atom      15.38093681      6.21949544     -0.17906580 C 
atom      13.98238880      6.24322562     -0.22697895 C 
atom      13.23450483      5.16365229     -0.75209973 C 
atom      13.22812094      7.32762095      0.27947680 C 
atom      11.84894168      7.33778719      0.30726552 C 
atom      11.14788854      6.21493935     -0.18631874 C 
atom      11.85614507      5.12028293     -0.73369929 C 
atom       9.74444991      6.17598921     -0.11371690 C 
atom       8.52511110      6.13326738     -0.04070556 C 
atom       7.14449139      5.99682651      0.02643430 C 
atom       6.16058045      6.99886884      0.05971224 C 
atom       6.32193669      8.37420524      0.07060684 C 
atom       6.37996682      9.60738748      0.08358443 C 
atom       6.40752246     10.93957742      0.09565758 C 
atom       6.40208323     12.17909008      0.10196381 C 
atom       6.36348151     13.51128178      0.10509731 C 
atom       6.28717436     14.74359407      0.10686119 C 
atom       4.87928974      6.29843430      0.07415100 C 
atom       6.43365022      4.72658913      0.04740335 C 
atom       3.63459389      6.93207013      0.07770877 C 
atom       2.38815974      6.30034221      0.07343776 C 
atom       1.10995884      7.00777428      0.07266739 C 
atom       0.96166281      8.38441657      0.06289339 C 
atom       0.90340877      9.61772767      0.06143965 C 
atom       0.84808728     10.94946588      0.05778487 C 
atom       0.84048662     12.18902946      0.05222417 C 
atom       0.87477627     13.52166866      0.04255907 C 
atom       0.93767781     14.75485036      0.03135400 C 
atom       0.12104358      6.01129189      0.08342998 C 
atom       0.82310242      4.73610621      0.07227535 C 
atom       0.19299550      3.48796979      0.04279082 C 
atom       0.81746490      2.23711473      0.02461073 C 
atom       0.11164762      0.96350300     -0.01551315 C 
atom       1.09859208     -0.03532935      0.02085538 C 
atom       2.37703741      0.66785009      0.05565026 C 
atom       3.62105822      0.03150206      0.06583692 C 
atom       4.86721254      0.66183114      0.07722417 C 
atom       6.42849096      2.22600571      0.09174101 C 
atom       6.14467705     -0.04543447      0.09456870 C 
atom       7.13478105      0.95099092      0.11717599 C 
atom       7.05599710      3.47464376      0.06650186 C 
atom       8.51608767      0.80935882      0.17842600 C 
atom       9.73612412      0.76205906      0.24207835 C 
atom      11.14233441      0.73484489      0.28617472 C 
atom      11.84653887      1.82991630      0.84001801 C 
atom      13.22520160      1.80584145      0.83282392 C 
atom      13.97966536      0.74354477      0.28155391 C 
atom      13.23099655     -0.34206481     -0.22957237 C 
atom      11.85090904     -0.36953870     -0.23763918 C 
atom      15.37777987      0.78764272      0.21779287 C 
atom      16.59687487      0.82714389      0.13686959 C 
atom       4.28809600      4.68306252      3.12294879 C 
atom       4.27780960      2.27865249      3.12382322 C 
atom       2.20518711      3.49059757      3.12182253 C 
atom       2.20527434      3.49082404      4.67559218 C 
atom       4.27722293      2.27802461      4.67601602 C 
atom       4.28903350      4.68348780      4.67519216 C 
atom      22.21975068      2.33039188      3.04876584 C 
atom      20.09420311      3.44879127      3.05689811 C 
atom      20.09774621      3.44561206      4.61046337 C 
atom      22.22250710      2.32479682      4.60117684 C 
atom      22.12801539      4.72690892      4.60972720 C 
atom      22.12299529      4.73193522      3.05703439 C 
atom      31.66525789      2.64205760     -1.25647776 H 
atom      31.65658676     -1.24984900      0.69244782 H 
atom      21.49318674     -1.05071283     -0.00989349 H 
atom      16.96646562      3.48997549      0.00635984 H 
atom      21.49841029      8.02797740      0.02971440 H 
atom      31.66930070      8.21326003     -0.69284888 H 
atom      31.66550215      4.26058898      1.12750725 H 
atom      26.02254690      3.48568606     -0.03279944 H 
atom      11.31371902      8.18953553      0.72121265 H 
atom      11.33066290      4.25914464     -1.14147490 H 
atom       3.63346505      8.02100239      0.07895844 H 
atom      -0.89729401      3.48903578      0.02815590 H 
atom       3.61633232     -1.05876930      0.06114749 H 
atom      11.31666845      2.67776698      1.26912228 H 
atom      11.32360187     -1.22125425     -0.66248151 H 
atom       3.76072632      1.39554965      2.72589793 H 
atom       5.30193931      2.27369481      2.72900477 H 
atom       5.31157783      4.68053902      2.72639682 H 
atom       3.77696923      5.57002610      2.72601875 H 
atom       5.31304021      4.68068396      5.07032200 H 
atom       3.77868230      5.57065120      5.07276132 H 
atom       5.30068415      2.27009991      5.07265605 H 
atom       3.75737622      1.39607656      5.07282848 H 
atom       1.69967657      4.38019930      5.07372131 H 
atom       1.69119099      2.60624418      5.07315515 H 
atom       1.69982647      4.38053930      2.72443847 H 
atom       1.69014161      2.60652506      2.72356013 H 
atom      21.74241808      1.42584341      2.64945173 H 
atom      23.24201535      2.37309235      2.65115408 H 
atom      23.14518173      4.77505504      2.65972514 H 
atom      21.57315103      5.59746949      2.66476090 H 
atom      21.74506565      1.41822075      4.99570210 H 
atom      23.24672776      2.36267314      4.99397896 H 
atom      23.15240647      4.76587300      5.00190098 H 
atom      21.58167622      5.59031029      5.01159913 H 
atom      19.55582013      4.31215169      5.01094220 H 
atom      19.62186564      2.53965093      5.00773554 H 
atom      19.54797021      4.31551747      2.66227770 H 
atom      19.61822190      2.54309930      2.65925699 H 
atom       8.14660961      3.47078081      0.06321138 H 
atom      29.08370512      2.78846523     -1.39859138 F 
atom      29.07490491     -1.42704192      0.74295128 F 
atom      29.08592666      8.38380650     -0.77639121 F 
atom      29.08144142      4.11229564      1.25307593 F 
atom      13.90149976      8.38200510      0.77825392 F 
atom      13.91744459      4.13154706     -1.29078971 F 
atom      13.90617454      2.83928840      1.37082572 F 
atom      13.91030110     -1.38205977     -0.75067822 F 
atom      22.95725545      2.01719938     -0.00782156 N 
atom      20.03554010      2.02066266      0.00266551 N 
atom      20.03468015      4.96232596      0.00439490 N 
atom      22.95971229      4.96015351      0.00641272 N 
atom       5.08896980      4.95155574      0.06987747 N 
atom       2.17103654      4.95418114      0.07105229 N 
atom       2.16473766      2.01460411      0.06098194 N 
atom       5.08210547      2.00781330      0.07396040 N 
atom       3.59227564      3.48368293      2.60091873 N 
atom       3.59263609      3.48426763      5.19814382 N 
atom      21.47893406      3.50491107      2.53181229 N 
atom      21.48513037      3.49696110      5.12982263 N 
atom      21.49429629      3.49303397      0.00011065 Zn 
atom       3.62303323      3.48180261      0.06108279 Zn 
