lattice_vector     35.72960751     -0.00000000      0.00000000 
lattice_vector     -0.00000000     16.17396320     -0.00000000 
lattice_vector     -0.00000000     -0.00000000      7.63640703 
atom      34.55566732      0.84129953     -0.14847250 C 
atom      33.33734367      0.79590158     -0.24423022 C 
atom      31.93231571      0.76612799     -0.33508994 C 
atom      31.22980587      1.82108119     -0.95985965 C 
atom      29.84586602      1.78921760     -1.00612178 C 
atom      29.09543684      0.74295687     -0.40467567 C 
atom      29.83547028     -0.32069144      0.17856494 C 
atom      31.21879262     -0.32054694      0.21393527 C 
atom      27.69731219      0.77297002     -0.33608455 C 
atom      26.48089071      0.84308968     -0.23631983 C 
atom      25.10207256      0.97816865     -0.13539211 C 
atom      24.39394589      2.24963761     -0.07570033 C 
atom      22.83687792      0.67735847     -0.03687716 C 
atom      24.11849214     -0.02529907     -0.08614756 C 
atom      21.58938051      0.04663296     -0.00463082 C 
atom      20.34249097      0.68030054      0.01866882 C 
atom      19.05949487     -0.02078211      0.08132049 C 
atom      18.07692347      0.98393529      0.12170620 C 
atom      18.78489616      2.25421714      0.04399861 C 
atom      18.15726134      3.50381528     -0.00380651 C 
atom      18.78489152      4.75316425     -0.05683273 C 
atom      20.34515269      6.32429128     -0.03555614 C 
atom      19.06327773      7.02782959     -0.06461993 C 
atom      18.07804663      6.02562730     -0.10083264 C 
atom      21.59237195      6.95644484     -0.01506442 C 
atom      22.83866072      6.32398297      0.00384986 C 
atom      24.12014221      7.02523218      0.05387320 C 
atom      24.39496441      4.75030811      0.02676722 C 
atom      25.10337603      6.02130238      0.09070018 C 
atom      26.48202225      6.15768095      0.18519233 C 
atom      27.69903731      6.22399424      0.27799969 C 
atom      29.09697182      6.24823583      0.34376599 C 
atom      29.84191955      7.31297283     -0.23080523 C 
atom      31.22538055      7.31015843     -0.25848417 C 
atom      31.93311797      6.21841465      0.28786620 C 
atom      31.22478853      5.15773268      0.89633195 C 
atom      29.84142029      5.19325820      0.93757890 C 
atom      33.33916928      6.18688859      0.22262743 C 
atom      34.55910849      6.14423266      0.14888844 C 
atom      25.02099542      3.49982316     -0.02698763 C 
atom      24.28294406      8.39998854      0.05386005 C 
atom      24.35816308      9.63326739      0.04741950 C 
atom      24.40035930     10.96578188      0.02173984 C 
atom      24.39748246     12.20601477     -0.00808318 C 
atom      24.35261774     13.53837573     -0.04519206 C 
atom      24.28031967     14.77155566     -0.07777222 C 
atom      18.90687036      8.40319281     -0.05113394 C 
atom      18.84357033      9.63671107     -0.02024537 C 
atom      18.80053422     10.96894852      0.01191643 C 
atom      18.79763812     12.20914488      0.03993317 C 
atom      18.83821782     13.54183711      0.06486448 C 
atom      18.90067576     14.77571052      0.08685417 C 
atom      16.69908342      6.16129177     -0.17770548 C 
atom      15.48164505      6.22735288     -0.26596201 C 
atom      14.08291976      6.25023760     -0.32074290 C 
atom      13.33694774      5.19978588     -0.92040550 C 
atom      13.33991385      7.30806607      0.26903832 C 
atom      11.95657029      7.30267193      0.30414146 C 
atom      11.24867420      6.21199521     -0.24367152 C 
atom      11.95419528      5.15883600     -0.86721608 C 
atom       9.84404957      6.17598830     -0.16378449 C 
atom       8.62527804      6.12969374     -0.07870397 C 
atom       7.24275897      6.00102781     -0.00351055 C 
atom       6.25951836      7.00427839      0.02939532 C 
atom       6.41584594      8.37965207      0.03750423 C 
atom       6.48115654      9.61324309      0.05435399 C 
atom       6.51817066     10.94589578      0.07366353 C 
atom       6.51588510     12.18612311      0.08884642 C 
atom       6.47351284     13.51889358      0.10319778 C 
atom       6.40653052     14.75252255      0.11789458 C 
atom       4.97631431      6.30382281      0.05547381 C 
atom       6.53077403      4.73107862      0.03319074 C 
atom       3.73165789      6.93992253      0.06357699 C 
atom       2.48268406      6.31078520      0.06754475 C 
atom       1.19932987      7.01297303      0.07513170 C 
atom       1.04122357      8.38783761      0.05855340 C 
atom       0.97806290      9.62154381      0.04981156 C 
atom       0.93603791     10.95380990      0.03343137 C 
atom       0.93206802     12.19391144      0.01991960 C 
atom       0.96840692     13.52656841      0.00669659 C 
atom       1.02677542     14.76059429     -0.00393742 C 
atom       0.21346293      6.01141265      0.09671259 C 
atom       0.92292176      4.73994557      0.07509227 C 
atom       0.92058981      2.23717829      0.00644272 C 
atom       0.20834537      0.96856569     -0.05027152 C 
atom       1.18984240     -0.03679823     -0.00596428 C 
atom       2.47524757      0.66088609      0.04494129 C 
atom       0.29814702      3.48946365      0.03407114 C 
atom       3.72274561      0.02801176      0.06829684 C 
atom       4.97008600      0.65973208      0.08466366 C 
atom       6.52796425      2.22944381      0.10319988 C 
atom       6.25241885     -0.04349909      0.11800841 C 
atom       7.23773543      0.95824545      0.14546102 C 
atom       7.15418100      3.47969083      0.06808776 C 
atom       8.62177186      0.83455846      0.21056495 C 
atom       9.84191140      0.80460760      0.28374646 C 
atom      11.24812342      0.79005331      0.35038082 C 
atom      11.94445813      1.84663110      0.97853285 C 
atom      13.32824551      1.82325268      1.02052646 C 
atom      14.08408126      0.78657967      0.40989315 C 
atom      13.35067351     -0.27223390     -0.19040257 C 
atom      11.96700935     -0.28205759     -0.21910412 C 
atom      15.48324644      0.82142105      0.35791805 C 
atom      16.69876880      0.85734281      0.23158677 C 
atom       4.40345001      4.68096037      3.09817079 C 
atom       4.39088389      2.27536995      3.10350049 C 
atom       2.31787143      3.48943866      3.09421160 C 
atom       2.31554630      3.49056068      4.64843272 C 
atom       4.38649275      2.27963741      4.65644764 C 
atom       4.39819822      4.68274617      4.65111151 C 
atom      22.31527279      2.33549585      3.02050586 C 
atom      20.19129053      3.45345147      3.02893139 C 
atom      20.19310189      3.44944589      4.58300000 C 
atom      22.31795026      2.32807472      4.57337929 C 
atom      22.22473125      4.73102013      4.58300911 C 
atom      22.21858376      4.73662083      3.02998147 C 
atom      31.77106432      2.65056800     -1.41028131 H 
atom      31.75304072     -1.14059787      0.68839265 H 
atom      21.58856950     -1.04397071      0.00515413 H 
atom      17.06773111      3.50462356      0.00773950 H 
atom      21.59266226      8.04713770     -0.00925606 H 
atom      31.76472175      8.13112041     -0.72252355 H 
atom      31.76260040      4.32270752      1.34033055 H 
atom      26.11206823      3.49964446     -0.02884817 H 
atom      11.41663657      8.12206986      0.77062974 H 
atom      11.41580174      4.32537845     -1.31335624 H 
atom       3.73686063      8.03062253      0.06236508 H 
atom       3.72409849     -1.06270053      0.06955027 H 
atom       8.24490634      3.47876725      0.06944441 H 
atom      11.39800821      2.66787798      1.43753590 H 
atom      11.43521257     -1.09958188     -0.70079463 H 
atom       3.87353049      1.39195322      2.70718929 H 
atom       5.41603406      2.26809348      2.71185973 H 
atom       5.42841686      4.67609563      2.70571692 H 
atom       3.89540324      5.56823344      2.69840519 H 
atom       5.42121464      4.68029915      5.04861125 H 
atom       3.88736064      5.57122266      5.04484338 H 
atom       5.40930134      2.27361851      5.05465962 H 
atom       3.86708083      1.39772419      5.05370802 H 
atom       1.80746290      4.37948855      5.04430121 H 
atom       1.80134403      2.60529083      5.04417571 H 
atom       1.81461060      4.37960718      2.69535766 H 
atom       1.80352955      2.60542784      2.69537660 H 
atom      21.83702963      1.43153011      2.62131735 H 
atom      23.33784379      2.37687792      2.62366463 H 
atom      23.24074811      4.78169324      2.63304593 H 
atom      21.66746845      5.60184283      2.63879530 H 
atom      21.83939271      1.42170589      4.96689434 H 
atom      23.34216795      2.36490914      4.96584041 H 
atom      23.24932882      4.76857485      4.97450721 H 
atom      21.67961772      5.59484855      4.98515237 H 
atom      19.65030795      4.31546832      4.98284211 H 
atom      19.71778287      2.54286707      4.97949115 H 
atom      19.64469318      4.31989991      2.63435895 H 
atom      19.71581654      2.54750389      2.63185312 H 
atom      -0.79201327      3.49110411      0.01688103 H 
atom      23.04887755      2.02450386     -0.03141209 N 
atom      20.13100756      2.02805895     -0.00562956 N 
atom      20.13206599      4.97658797     -0.03186377 N 
atom      23.04992370      4.97665303     -0.01256969 N 
atom       5.18536820      4.95648863      0.05989296 N 
atom       2.27026762      4.96334294      0.06762574 N 
atom       2.26638289      2.00911131      0.05424274 N 
atom       5.18230252      2.00667769      0.07516104 N 
atom       3.70706684      3.48081297      2.57534688 N 
atom       3.70042339      3.48552207      5.17325274 N 
atom      21.57550293      3.51007609      2.50485939 N 
atom      21.58089264      3.50088266      5.10308208 N 
atom      21.59269185      3.50268501     -0.04499609 Zn 
atom       3.72250007      3.48338052      0.09159277 Zn 
atom      14.19667446      8.63240914      0.99032166 Cl 
atom      14.16492322      3.09660892      1.85836927 Cl 
atom      14.18254626      3.93127276     -1.75617240 Cl 
atom      14.21758735     -1.57976081     -0.93431423 Cl 
atom      28.97354435     -1.64648257      0.89600787 Cl 
atom      29.00410366      3.06465233     -1.83561996 Cl 
atom      28.99236351      3.91470604      1.75465469 Cl 
atom      28.98793189      8.64291350     -0.94485059 Cl 
